256
Lattice="14.40000000 0.00000000 0.00000000 0.00000000 14.40000000 0.00000000 0.00000000 0.00000000 14.40000000" Properties=species:S:1:pos:R:3
Cu 0.000000 0.000000 0.000000
Cu 0.000000 1.800000 1.800000
Cu 1.800000 0.000000 1.800000
Cu 1.800000 1.800000 0.000000
Cu 0.000000 0.000000 3.600000
Cu 0.000000 1.800000 5.400000
Cu 1.800000 0.000000 5.400000
Cu 1.800000 1.800000 3.600000
Cu 0.000000 0.000000 7.200000
Cu 0.000000 1.800000 9.000000
Cu 1.800000 0.000000 9.000000
Cu 1.800000 1.800000 7.200000
Cu 0.000000 0.000000 10.800000
Cu 0.000000 1.800000 12.600000
Cu 1.800000 0.000000 12.600000
Cu 1.800000 1.800000 10.800000
Cu 0.000000 3.600000 0.000000
Cu 0.000000 5.400000 1.800000
Cu 1.800000 3.600000 1.800000
Cu 1.800000 5.400000 0.000000
Cu 0.000000 3.600000 3.600000
Cu 0.000000 5.400000 5.400000
Cu 1.800000 3.600000 5.400000
Cu 1.800000 5.400000 3.600000
Cu 0.000000 3.600000 7.200000
Cu 0.000000 5.400000 9.000000
Cu 1.800000 3.600000 9.000000
Cu 1.800000 5.400000 7.200000
Cu 0.000000 3.600000 10.800000
Cu 0.000000 5.400000 12.600000
Cu 1.800000 3.600000 12.600000
Cu 1.800000 5.400000 10.800000
Cu 0.000000 7.200000 0.000000
Cu 0.000000 9.000000 1.800000
Cu 1.800000 7.200000 1.800000
Cu 1.800000 9.000000 0.000000
Cu 0.000000 7.200000 3.600000
Cu 0.000000 9.000000 5.400000
Cu 1.800000 7.200000 5.400000
Cu 1.800000 9.000000 3.600000
Cu 0.000000 7.200000 7.200000
Cu 0.000000 9.000000 9.000000
Cu 1.800000 7.200000 9.000000
Cu 1.800000 9.000000 7.200000
Cu 0.000000 7.200000 10.800000
Cu 0.000000 9.000000 12.600000
Cu 1.800000 7.200000 12.600000
Cu 1.800000 9.000000 10.800000
Cu 0.000000 10.800000 0.000000
Cu 0.000000 12.600000 1.800000
Cu 1.800000 10.800000 1.800000
Cu 1.800000 12.600000 0.000000
Cu 0.000000 10.800000 3.600000
Cu 0.000000 12.600000 5.400000
Cu 1.800000 10.800000 5.400000
Cu 1.800000 12.600000 3.600000
Cu 0.000000 10.800000 7.200000
Cu 0.000000 12.600000 9.000000
Cu 1.800000 10.800000 9.000000
Cu 1.800000 12.600000 7.200000
Cu 0.000000 10.800000 10.800000
Cu 0.000000 12.600000 12.600000
Cu 1.800000 10.800000 12.600000
Cu 1.800000 12.600000 10.800000
Cu 3.600000 0.000000 0.000000
Cu 3.600000 1.800000 1.800000
Cu 5.400000 0.000000 1.800000
Cu 5.400000 1.800000 0.000000
Cu 3.600000 0.000000 3.600000
Cu 3.600000 1.800000 5.400000
Cu 5.400000 0.000000 5.400000
Cu 5.400000 1.800000 3.600000
Cu 3.600000 0.000000 7.200000
Cu 3.600000 1.800000 9.000000
Cu 5.400000 0.000000 9.000000
Cu 5.400000 1.800000 7.200000
Cu 3.600000 0.000000 10.800000
Cu 3.600000 1.800000 12.600000
Cu 5.400000 0.000000 12.600000
Cu 5.400000 1.800000 10.800000
Cu 3.600000 3.600000 0.000000
Cu 3.600000 5.400000 1.800000
Cu 5.400000 3.600000 1.800000
Cu 5.400000 5.400000 0.000000
Cu 3.600000 3.600000 3.600000
Cu 3.600000 5.400000 5.400000
Cu 5.400000 3.600000 5.400000
Cu 5.400000 5.400000 3.600000
Cu 3.600000 3.600000 7.200000
Cu 3.600000 5.400000 9.000000
Cu 5.400000 3.600000 9.000000
Cu 5.400000 5.400000 7.200000
Cu 3.600000 3.600000 10.800000
Cu 3.600000 5.400000 12.600000
Cu 5.400000 3.600000 12.600000
Cu 5.400000 5.400000 10.800000
Cu 3.600000 7.200000 0.000000
Cu 3.600000 9.000000 1.800000
Cu 5.400000 7.200000 1.800000
Cu 5.400000 9.000000 0.000000
Cu 3.600000 7.200000 3.600000
Cu 3.600000 9.000000 5.400000
Cu 5.400000 7.200000 5.400000
Cu 5.400000 9.000000 3.600000
Cu 3.600000 7.200000 7.200000
Cu 3.600000 9.000000 9.000000
Cu 5.400000 7.200000 9.000000
Cu 5.400000 9.000000 7.200000
Cu 3.600000 7.200000 10.800000
Cu 3.600000 9.000000 12.600000
Cu 5.400000 7.200000 12.600000
Cu 5.400000 9.000000 10.800000
Cu 3.600000 10.800000 0.000000
Cu 3.600000 12.600000 1.800000
Cu 5.400000 10.800000 1.800000
Cu 5.400000 12.600000 0.000000
Cu 3.600000 10.800000 3.600000
Cu 3.600000 12.600000 5.400000
Cu 5.400000 10.800000 5.400000
Cu 5.400000 12.600000 3.600000
Cu 3.600000 10.800000 7.200000
Cu 3.600000 12.600000 9.000000
Cu 5.400000 10.800000 9.000000
Cu 5.400000 12.600000 7.200000
Cu 3.600000 10.800000 10.800000
Cu 3.600000 12.600000 12.600000
Cu 5.400000 10.800000 12.600000
Cu 5.400000 12.600000 10.800000
Cu 7.200000 0.000000 0.000000
Cu 7.200000 1.800000 1.800000
Cu 9.000000 0.000000 1.800000
Cu 9.000000 1.800000 0.000000
Cu 7.200000 0.000000 3.600000
Cu 7.200000 1.800000 5.400000
Cu 9.000000 0.000000 5.400000
Cu 9.000000 1.800000 3.600000
Cu 7.200000 0.000000 7.200000
Cu 7.200000 1.800000 9.000000
Cu 9.000000 0.000000 9.000000
Cu 9.000000 1.800000 7.200000
Cu 7.200000 0.000000 10.800000
Cu 7.200000 1.800000 12.600000
Cu 9.000000 0.000000 12.600000
Cu 9.000000 1.800000 10.800000
Cu 7.200000 3.600000 0.000000
Cu 7.200000 5.400000 1.800000
Cu 9.000000 3.600000 1.800000
Cu 9.000000 5.400000 0.000000
Cu 7.200000 3.600000 3.600000
Cu 7.200000 5.400000 5.400000
Cu 9.000000 3.600000 5.400000
Cu 9.000000 5.400000 3.600000
Cu 7.200000 3.600000 7.200000
Cu 7.200000 5.400000 9.000000
Cu 9.000000 3.600000 9.000000
Cu 9.000000 5.400000 7.200000
Cu 7.200000 3.600000 10.800000
Cu 7.200000 5.400000 12.600000
Cu 9.000000 3.600000 12.600000
Cu 9.000000 5.400000 10.800000
Cu 7.200000 7.200000 0.000000
Cu 7.200000 9.000000 1.800000
Cu 9.000000 7.200000 1.800000
Cu 9.000000 9.000000 0.000000
Cu 7.200000 7.200000 3.600000
Cu 7.200000 9.000000 5.400000
Cu 9.000000 7.200000 5.400000
Cu 9.000000 9.000000 3.600000
Cu 7.200000 7.200000 7.200000
Cu 7.200000 9.000000 9.000000
Cu 9.000000 7.200000 9.000000
Cu 9.000000 9.000000 7.200000
Cu 7.200000 7.200000 10.800000
Cu 7.200000 9.000000 12.600000
Cu 9.000000 7.200000 12.600000
Cu 9.000000 9.000000 10.800000
Cu 7.200000 10.800000 0.000000
Cu 7.200000 12.600000 1.800000
Cu 9.000000 10.800000 1.800000
Cu 9.000000 12.600000 0.000000
Cu 7.200000 10.800000 3.600000
Cu 7.200000 12.600000 5.400000
Cu 9.000000 10.800000 5.400000
Cu 9.000000 12.600000 3.600000
Cu 7.200000 10.800000 7.200000
Cu 7.200000 12.600000 9.000000
Cu 9.000000 10.800000 9.000000
Cu 9.000000 12.600000 7.200000
Cu 7.200000 10.800000 10.800000
Cu 7.200000 12.600000 12.600000
Cu 9.000000 10.800000 12.600000
Cu 9.000000 12.600000 10.800000
Cu 10.800000 0.000000 0.000000
Cu 10.800000 1.800000 1.800000
Cu 12.600000 0.000000 1.800000
Cu 12.600000 1.800000 0.000000
Cu 10.800000 0.000000 3.600000
Cu 10.800000 1.800000 5.400000
Cu 12.600000 0.000000 5.400000
Cu 12.600000 1.800000 3.600000
Cu 10.800000 0.000000 7.200000
Cu 10.800000 1.800000 9.000000
Cu 12.600000 0.000000 9.000000
Cu 12.600000 1.800000 7.200000
Cu 10.800000 0.000000 10.800000
Cu 10.800000 1.800000 12.600000
Cu 12.600000 0.000000 12.600000
Cu 12.600000 1.800000 10.800000
Cu 10.800000 3.600000 0.000000
Cu 10.800000 5.400000 1.800000
Cu 12.600000 3.600000 1.800000
Cu 12.600000 5.400000 0.000000
Cu 10.800000 3.600000 3.600000
Cu 10.800000 5.400000 5.400000
Cu 12.600000 3.600000 5.400000
Cu 12.600000 5.400000 3.600000
Cu 10.800000 3.600000 7.200000
Cu 10.800000 5.400000 9.000000
Cu 12.600000 3.600000 9.000000
Cu 12.600000 5.400000 7.200000
Cu 10.800000 3.600000 10.800000
Cu 10.800000 5.400000 12.600000
Cu 12.600000 3.600000 12.600000
Cu 12.600000 5.400000 10.800000
Cu 10.800000 7.200000 0.000000
Cu 10.800000 9.000000 1.800000
Cu 12.600000 7.200000 1.800000
Cu 12.600000 9.000000 0.000000
Cu 10.800000 7.200000 3.600000
Cu 10.800000 9.000000 5.400000
Cu 12.600000 7.200000 5.400000
Cu 12.600000 9.000000 3.600000
Cu 10.800000 7.200000 7.200000
Cu 10.800000 9.000000 9.000000
Cu 12.600000 7.200000 9.000000
Cu 12.600000 9.000000 7.200000
Cu 10.800000 7.200000 10.800000
Cu 10.800000 9.000000 12.600000
Cu 12.600000 7.200000 12.600000
Cu 12.600000 9.000000 10.800000
Cu 10.800000 10.800000 0.000000
Cu 10.800000 12.600000 1.800000
Cu 12.600000 10.800000 1.800000
Cu 12.600000 12.600000 0.000000
Cu 10.800000 10.800000 3.600000
Cu 10.800000 12.600000 5.400000
Cu 12.600000 10.800000 5.400000
Cu 12.600000 12.600000 3.600000
Cu 10.800000 10.800000 7.200000
Cu 10.800000 12.600000 9.000000
Cu 12.600000 10.800000 9.000000
Cu 12.600000 12.600000 7.200000
Cu 10.800000 10.800000 10.800000
Cu 10.800000 12.600000 12.600000
Cu 12.600000 10.800000 12.600000
Cu 12.600000 12.600000 10.800000
