2048
Lattice="57.60000000 0.00000000 0.00000000 0.00000000 57.60000000 0.00000000 0.00000000 0.00000000 7.20000000" Properties=species:S:1:pos:R:3
Cu 0.000000 0.000000 0.000000
Cu 0.000000 1.800000 1.800000
Cu 1.800000 0.000000 1.800000
Cu 1.800000 1.800000 0.000000
Cu 0.000000 0.000000 3.600000
Cu 0.000000 1.800000 5.400000
Cu 1.800000 0.000000 5.400000
Cu 1.800000 1.800000 3.600000
Cu 0.000000 3.600000 0.000000
Cu 0.000000 5.400000 1.800000
Cu 1.800000 3.600000 1.800000
Cu 1.800000 5.400000 0.000000
Cu 0.000000 3.600000 3.600000
Cu 0.000000 5.400000 5.400000
Cu 1.800000 3.600000 5.400000
Cu 1.800000 5.400000 3.600000
Cu 0.000000 7.200000 0.000000
Cu 0.000000 9.000000 1.800000
Cu 1.800000 7.200000 1.800000
Cu 1.800000 9.000000 0.000000
Cu 0.000000 7.200000 3.600000
Cu 0.000000 9.000000 5.400000
Cu 1.800000 7.200000 5.400000
Cu 1.800000 9.000000 3.600000
Cu 0.000000 10.800000 0.000000
Cu 0.000000 12.600000 1.800000
Cu 1.800000 10.800000 1.800000
Cu 1.800000 12.600000 0.000000
Cu 0.000000 10.800000 3.600000
Cu 0.000000 12.600000 5.400000
Cu 1.800000 10.800000 5.400000
Cu 1.800000 12.600000 3.600000
Cu 0.000000 14.400000 0.000000
Cu 0.000000 16.200000 1.800000
Cu 1.800000 14.400000 1.800000
Cu 1.800000 16.200000 0.000000
Cu 0.000000 14.400000 3.600000
Cu 0.000000 16.200000 5.400000
Cu 1.800000 14.400000 5.400000
Cu 1.800000 16.200000 3.600000
Cu 0.000000 18.000000 0.000000
Cu 0.000000 19.800000 1.800000
Cu 1.800000 18.000000 1.800000
Cu 1.800000 19.800000 0.000000
Cu 0.000000 18.000000 3.600000
Cu 0.000000 19.800000 5.400000
Cu 1.800000 18.000000 5.400000
Cu 1.800000 19.800000 3.600000
Cu 0.000000 21.600000 0.000000
Cu 0.000000 23.400000 1.800000
Cu 1.800000 21.600000 1.800000
Cu 1.800000 23.400000 0.000000
Cu 0.000000 21.600000 3.600000
Cu 0.000000 23.400000 5.400000
Cu 1.800000 21.600000 5.400000
Cu 1.800000 23.400000 3.600000
Cu 0.000000 25.200000 0.000000
Cu 0.000000 27.000000 1.800000
Cu 1.800000 25.200000 1.800000
Cu 1.800000 27.000000 0.000000
Cu 0.000000 25.200000 3.600000
Cu 0.000000 27.000000 5.400000
Cu 1.800000 25.200000 5.400000
Cu 1.800000 27.000000 3.600000
Cu 0.000000 28.800000 0.000000
Cu 0.000000 30.600000 1.800000
Cu 1.800000 28.800000 1.800000
Cu 1.800000 30.600000 0.000000
Cu 0.000000 28.800000 3.600000
Cu 0.000000 30.600000 5.400000
Cu 1.800000 28.800000 5.400000
Cu 1.800000 30.600000 3.600000
Cu 0.000000 32.400000 0.000000
Cu 0.000000 34.200000 1.800000
Cu 1.800000 32.400000 1.800000
Cu 1.800000 34.200000 0.000000
Cu 0.000000 32.400000 3.600000
Cu 0.000000 34.200000 5.400000
Cu 1.800000 32.400000 5.400000
Cu 1.800000 34.200000 3.600000
Cu 0.000000 36.000000 0.000000
Cu 0.000000 37.800000 1.800000
Cu 1.800000 36.000000 1.800000
Cu 1.800000 37.800000 0.000000
Cu 0.000000 36.000000 3.600000
Cu 0.000000 37.800000 5.400000
Cu 1.800000 36.000000 5.400000
Cu 1.800000 37.800000 3.600000
Cu 0.000000 39.600000 0.000000
Cu 0.000000 41.400000 1.800000
Cu 1.800000 39.600000 1.800000
Cu 1.800000 41.400000 0.000000
Cu 0.000000 39.600000 3.600000
Cu 0.000000 41.400000 5.400000
Cu 1.800000 39.600000 5.400000
Cu 1.800000 41.400000 3.600000
Cu 0.000000 43.200000 0.000000
Cu 0.000000 45.000000 1.800000
Cu 1.800000 43.200000 1.800000
Cu 1.800000 45.000000 0.000000
Cu 0.000000 43.200000 3.600000
Cu 0.000000 45.000000 5.400000
Cu 1.800000 43.200000 5.400000
Cu 1.800000 45.000000 3.600000
Cu 0.000000 46.800000 0.000000
Cu 0.000000 48.600000 1.800000
Cu 1.800000 46.800000 1.800000
Cu 1.800000 48.600000 0.000000
Cu 0.000000 46.800000 3.600000
Cu 0.000000 48.600000 5.400000
Cu 1.800000 46.800000 5.400000
Cu 1.800000 48.600000 3.600000
Cu 0.000000 50.400000 0.000000
Cu 0.000000 52.200000 1.800000
Cu 1.800000 50.400000 1.800000
Cu 1.800000 52.200000 0.000000
Cu 0.000000 50.400000 3.600000
Cu 0.000000 52.200000 5.400000
Cu 1.800000 50.400000 5.400000
Cu 1.800000 52.200000 3.600000
Cu 0.000000 54.000000 0.000000
Cu 0.000000 55.800000 1.800000
Cu 1.800000 54.000000 1.800000
Cu 1.800000 55.800000 0.000000
Cu 0.000000 54.000000 3.600000
Cu 0.000000 55.800000 5.400000
Cu 1.800000 54.000000 5.400000
Cu 1.800000 55.800000 3.600000
Cu 3.600000 0.000000 0.000000
Cu 3.600000 1.800000 1.800000
Cu 5.400000 0.000000 1.800000
Cu 5.400000 1.800000 0.000000
Cu 3.600000 0.000000 3.600000
Cu 3.600000 1.800000 5.400000
Cu 5.400000 0.000000 5.400000
Cu 5.400000 1.800000 3.600000
Cu 3.600000 3.600000 0.000000
Cu 3.600000 5.400000 1.800000
Cu 5.400000 3.600000 1.800000
Cu 5.400000 5.400000 0.000000
Cu 3.600000 3.600000 3.600000
Cu 3.600000 5.400000 5.400000
Cu 5.400000 3.600000 5.400000
Cu 5.400000 5.400000 3.600000
Cu 3.600000 7.200000 0.000000
Cu 3.600000 9.000000 1.800000
Cu 5.400000 7.200000 1.800000
Cu 5.400000 9.000000 0.000000
Cu 3.600000 7.200000 3.600000
Cu 3.600000 9.000000 5.400000
Cu 5.400000 7.200000 5.400000
Cu 5.400000 9.000000 3.600000
Cu 3.600000 10.800000 0.000000
Cu 3.600000 12.600000 1.800000
Cu 5.400000 10.800000 1.800000
Cu 5.400000 12.600000 0.000000
Cu 3.600000 10.800000 3.600000
Cu 3.600000 12.600000 5.400000
Cu 5.400000 10.800000 5.400000
Cu 5.400000 12.600000 3.600000
Cu 3.600000 14.400000 0.000000
Cu 3.600000 16.200000 1.800000
Cu 5.400000 14.400000 1.800000
Cu 5.400000 16.200000 0.000000
Cu 3.600000 14.400000 3.600000
Cu 3.600000 16.200000 5.400000
Cu 5.400000 14.400000 5.400000
Cu 5.400000 16.200000 3.600000
Cu 3.600000 18.000000 0.000000
Cu 3.600000 19.800000 1.800000
Cu 5.400000 18.000000 1.800000
Cu 5.400000 19.800000 0.000000
Cu 3.600000 18.000000 3.600000
Cu 3.600000 19.800000 5.400000
Cu 5.400000 18.000000 5.400000
Cu 5.400000 19.800000 3.600000
Cu 3.600000 21.600000 0.000000
Cu 3.600000 23.400000 1.800000
Cu 5.400000 21.600000 1.800000
Cu 5.400000 23.400000 0.000000
Cu 3.600000 21.600000 3.600000
Cu 3.600000 23.400000 5.400000
Cu 5.400000 21.600000 5.400000
Cu 5.400000 23.400000 3.600000
Cu 3.600000 25.200000 0.000000
Cu 3.600000 27.000000 1.800000
Cu 5.400000 25.200000 1.800000
Cu 5.400000 27.000000 0.000000
Cu 3.600000 25.200000 3.600000
Cu 3.600000 27.000000 5.400000
Cu 5.400000 25.200000 5.400000
Cu 5.400000 27.000000 3.600000
Cu 3.600000 28.800000 0.000000
Cu 3.600000 30.600000 1.800000
Cu 5.400000 28.800000 1.800000
Cu 5.400000 30.600000 0.000000
Cu 3.600000 28.800000 3.600000
Cu 3.600000 30.600000 5.400000
Cu 5.400000 28.800000 5.400000
Cu 5.400000 30.600000 3.600000
Cu 3.600000 32.400000 0.000000
Cu 3.600000 34.200000 1.800000
Cu 5.400000 32.400000 1.800000
Cu 5.400000 34.200000 0.000000
Cu 3.600000 32.400000 3.600000
Cu 3.600000 34.200000 5.400000
Cu 5.400000 32.400000 5.400000
Cu 5.400000 34.200000 3.600000
Cu 3.600000 36.000000 0.000000
Cu 3.600000 37.800000 1.800000
Cu 5.400000 36.000000 1.800000
Cu 5.400000 37.800000 0.000000
Cu 3.600000 36.000000 3.600000
Cu 3.600000 37.800000 5.400000
Cu 5.400000 36.000000 5.400000
Cu 5.400000 37.800000 3.600000
Cu 3.600000 39.600000 0.000000
Cu 3.600000 41.400000 1.800000
Cu 5.400000 39.600000 1.800000
Cu 5.400000 41.400000 0.000000
Cu 3.600000 39.600000 3.600000
Cu 3.600000 41.400000 5.400000
Cu 5.400000 39.600000 5.400000
Cu 5.400000 41.400000 3.600000
Cu 3.600000 43.200000 0.000000
Cu 3.600000 45.000000 1.800000
Cu 5.400000 43.200000 1.800000
Cu 5.400000 45.000000 0.000000
Cu 3.600000 43.200000 3.600000
Cu 3.600000 45.000000 5.400000
Cu 5.400000 43.200000 5.400000
Cu 5.400000 45.000000 3.600000
Cu 3.600000 46.800000 0.000000
Cu 3.600000 48.600000 1.800000
Cu 5.400000 46.800000 1.800000
Cu 5.400000 48.600000 0.000000
Cu 3.600000 46.800000 3.600000
Cu 3.600000 48.600000 5.400000
Cu 5.400000 46.800000 5.400000
Cu 5.400000 48.600000 3.600000
Cu 3.600000 50.400000 0.000000
Cu 3.600000 52.200000 1.800000
Cu 5.400000 50.400000 1.800000
Cu 5.400000 52.200000 0.000000
Cu 3.600000 50.400000 3.600000
Cu 3.600000 52.200000 5.400000
Cu 5.400000 50.400000 5.400000
Cu 5.400000 52.200000 3.600000
Cu 3.600000 54.000000 0.000000
Cu 3.600000 55.800000 1.800000
Cu 5.400000 54.000000 1.800000
Cu 5.400000 55.800000 0.000000
Cu 3.600000 54.000000 3.600000
Cu 3.600000 55.800000 5.400000
Cu 5.400000 54.000000 5.400000
Cu 5.400000 55.800000 3.600000
Cu 7.200000 0.000000 0.000000
Cu 7.200000 1.800000 1.800000
Cu 9.000000 0.000000 1.800000
Cu 9.000000 1.800000 0.000000
Cu 7.200000 0.000000 3.600000
Cu 7.200000 1.800000 5.400000
Cu 9.000000 0.000000 5.400000
Cu 9.000000 1.800000 3.600000
Cu 7.200000 3.600000 0.000000
Cu 7.200000 5.400000 1.800000
Cu 9.000000 3.600000 1.800000
Cu 9.000000 5.400000 0.000000
Cu 7.200000 3.600000 3.600000
Cu 7.200000 5.400000 5.400000
Cu 9.000000 3.600000 5.400000
Cu 9.000000 5.400000 3.600000
Cu 7.200000 7.200000 0.000000
Cu 7.200000 9.000000 1.800000
Cu 9.000000 7.200000 1.800000
Cu 9.000000 9.000000 0.000000
Cu 7.200000 7.200000 3.600000
Cu 7.200000 9.000000 5.400000
Cu 9.000000 7.200000 5.400000
Cu 9.000000 9.000000 3.600000
Cu 7.200000 10.800000 0.000000
Cu 7.200000 12.600000 1.800000
Cu 9.000000 10.800000 1.800000
Cu 9.000000 12.600000 0.000000
Cu 7.200000 10.800000 3.600000
Cu 7.200000 12.600000 5.400000
Cu 9.000000 10.800000 5.400000
Cu 9.000000 12.600000 3.600000
Cu 7.200000 14.400000 0.000000
Cu 7.200000 16.200000 1.800000
Cu 9.000000 14.400000 1.800000
Cu 9.000000 16.200000 0.000000
Cu 7.200000 14.400000 3.600000
Cu 7.200000 16.200000 5.400000
Cu 9.000000 14.400000 5.400000
Cu 9.000000 16.200000 3.600000
Cu 7.200000 18.000000 0.000000
Cu 7.200000 19.800000 1.800000
Cu 9.000000 18.000000 1.800000
Cu 9.000000 19.800000 0.000000
Cu 7.200000 18.000000 3.600000
Cu 7.200000 19.800000 5.400000
Cu 9.000000 18.000000 5.400000
Cu 9.000000 19.800000 3.600000
Cu 7.200000 21.600000 0.000000
Cu 7.200000 23.400000 1.800000
Cu 9.000000 21.600000 1.800000
Cu 9.000000 23.400000 0.000000
Cu 7.200000 21.600000 3.600000
Cu 7.200000 23.400000 5.400000
Cu 9.000000 21.600000 5.400000
Cu 9.000000 23.400000 3.600000
Cu 7.200000 25.200000 0.000000
Cu 7.200000 27.000000 1.800000
Cu 9.000000 25.200000 1.800000
Cu 9.000000 27.000000 0.000000
Cu 7.200000 25.200000 3.600000
Cu 7.200000 27.000000 5.400000
Cu 9.000000 25.200000 5.400000
Cu 9.000000 27.000000 3.600000
Cu 7.200000 28.800000 0.000000
Cu 7.200000 30.600000 1.800000
Cu 9.000000 28.800000 1.800000
Cu 9.000000 30.600000 0.000000
Cu 7.200000 28.800000 3.600000
Cu 7.200000 30.600000 5.400000
Cu 9.000000 28.800000 5.400000
Cu 9.000000 30.600000 3.600000
Cu 7.200000 32.400000 0.000000
Cu 7.200000 34.200000 1.800000
Cu 9.000000 32.400000 1.800000
Cu 9.000000 34.200000 0.000000
Cu 7.200000 32.400000 3.600000
Cu 7.200000 34.200000 5.400000
Cu 9.000000 32.400000 5.400000
Cu 9.000000 34.200000 3.600000
Cu 7.200000 36.000000 0.000000
Cu 7.200000 37.800000 1.800000
Cu 9.000000 36.000000 1.800000
Cu 9.000000 37.800000 0.000000
Cu 7.200000 36.000000 3.600000
Cu 7.200000 37.800000 5.400000
Cu 9.000000 36.000000 5.400000
Cu 9.000000 37.800000 3.600000
Cu 7.200000 39.600000 0.000000
Cu 7.200000 41.400000 1.800000
Cu 9.000000 39.600000 1.800000
Cu 9.000000 41.400000 0.000000
Cu 7.200000 39.600000 3.600000
Cu 7.200000 41.400000 5.400000
Cu 9.000000 39.600000 5.400000
Cu 9.000000 41.400000 3.600000
Cu 7.200000 43.200000 0.000000
Cu 7.200000 45.000000 1.800000
Cu 9.000000 43.200000 1.800000
Cu 9.000000 45.000000 0.000000
Cu 7.200000 43.200000 3.600000
Cu 7.200000 45.000000 5.400000
Cu 9.000000 43.200000 5.400000
Cu 9.000000 45.000000 3.600000
Cu 7.200000 46.800000 0.000000
Cu 7.200000 48.600000 1.800000
Cu 9.000000 46.800000 1.800000
Cu 9.000000 48.600000 0.000000
Cu 7.200000 46.800000 3.600000
Cu 7.200000 48.600000 5.400000
Cu 9.000000 46.800000 5.400000
Cu 9.000000 48.600000 3.600000
Cu 7.200000 50.400000 0.000000
Cu 7.200000 52.200000 1.800000
Cu 9.000000 50.400000 1.800000
Cu 9.000000 52.200000 0.000000
Cu 7.200000 50.400000 3.600000
Cu 7.200000 52.200000 5.400000
Cu 9.000000 50.400000 5.400000
Cu 9.000000 52.200000 3.600000
Cu 7.200000 54.000000 0.000000
Cu 7.200000 55.800000 1.800000
Cu 9.000000 54.000000 1.800000
Cu 9.000000 55.800000 0.000000
Cu 7.200000 54.000000 3.600000
Cu 7.200000 55.800000 5.400000
Cu 9.000000 54.000000 5.400000
Cu 9.000000 55.800000 3.600000
Cu 10.800000 0.000000 0.000000
Cu 10.800000 1.800000 1.800000
Cu 12.600000 0.000000 1.800000
Cu 12.600000 1.800000 0.000000
Cu 10.800000 0.000000 3.600000
Cu 10.800000 1.800000 5.400000
Cu 12.600000 0.000000 5.400000
Cu 12.600000 1.800000 3.600000
Cu 10.800000 3.600000 0.000000
Cu 10.800000 5.400000 1.800000
Cu 12.600000 3.600000 1.800000
Cu 12.600000 5.400000 0.000000
Cu 10.800000 3.600000 3.600000
Cu 10.800000 5.400000 5.400000
Cu 12.600000 3.600000 5.400000
Cu 12.600000 5.400000 3.600000
Cu 10.800000 7.200000 0.000000
Cu 10.800000 9.000000 1.800000
Cu 12.600000 7.200000 1.800000
Cu 12.600000 9.000000 0.000000
Cu 10.800000 7.200000 3.600000
Cu 10.800000 9.000000 5.400000
Cu 12.600000 7.200000 5.400000
Cu 12.600000 9.000000 3.600000
Cu 10.800000 10.800000 0.000000
Cu 10.800000 12.600000 1.800000
Cu 12.600000 10.800000 1.800000
Cu 12.600000 12.600000 0.000000
Cu 10.800000 10.800000 3.600000
Cu 10.800000 12.600000 5.400000
Cu 12.600000 10.800000 5.400000
Cu 12.600000 12.600000 3.600000
Cu 10.800000 14.400000 0.000000
Cu 10.800000 16.200000 1.800000
Cu 12.600000 14.400000 1.800000
Cu 12.600000 16.200000 0.000000
Cu 10.800000 14.400000 3.600000
Cu 10.800000 16.200000 5.400000
Cu 12.600000 14.400000 5.400000
Cu 12.600000 16.200000 3.600000
Cu 10.800000 18.000000 0.000000
Cu 10.800000 19.800000 1.800000
Cu 12.600000 18.000000 1.800000
Cu 12.600000 19.800000 0.000000
Cu 10.800000 18.000000 3.600000
Cu 10.800000 19.800000 5.400000
Cu 12.600000 18.000000 5.400000
Cu 12.600000 19.800000 3.600000
Cu 10.800000 21.600000 0.000000
Cu 10.800000 23.400000 1.800000
Cu 12.600000 21.600000 1.800000
Cu 12.600000 23.400000 0.000000
Cu 10.800000 21.600000 3.600000
Cu 10.800000 23.400000 5.400000
Cu 12.600000 21.600000 5.400000
Cu 12.600000 23.400000 3.600000
Cu 10.800000 25.200000 0.000000
Cu 10.800000 27.000000 1.800000
Cu 12.600000 25.200000 1.800000
Cu 12.600000 27.000000 0.000000
Cu 10.800000 25.200000 3.600000
Cu 10.800000 27.000000 5.400000
Cu 12.600000 25.200000 5.400000
Cu 12.600000 27.000000 3.600000
Cu 10.800000 28.800000 0.000000
Cu 10.800000 30.600000 1.800000
Cu 12.600000 28.800000 1.800000
Cu 12.600000 30.600000 0.000000
Cu 10.800000 28.800000 3.600000
Cu 10.800000 30.600000 5.400000
Cu 12.600000 28.800000 5.400000
Cu 12.600000 30.600000 3.600000
Cu 10.800000 32.400000 0.000000
Cu 10.800000 34.200000 1.800000
Cu 12.600000 32.400000 1.800000
Cu 12.600000 34.200000 0.000000
Cu 10.800000 32.400000 3.600000
Cu 10.800000 34.200000 5.400000
Cu 12.600000 32.400000 5.400000
Cu 12.600000 34.200000 3.600000
Cu 10.800000 36.000000 0.000000
Cu 10.800000 37.800000 1.800000
Cu 12.600000 36.000000 1.800000
Cu 12.600000 37.800000 0.000000
Cu 10.800000 36.000000 3.600000
Cu 10.800000 37.800000 5.400000
Cu 12.600000 36.000000 5.400000
Cu 12.600000 37.800000 3.600000
Cu 10.800000 39.600000 0.000000
Cu 10.800000 41.400000 1.800000
Cu 12.600000 39.600000 1.800000
Cu 12.600000 41.400000 0.000000
Cu 10.800000 39.600000 3.600000
Cu 10.800000 41.400000 5.400000
Cu 12.600000 39.600000 5.400000
Cu 12.600000 41.400000 3.600000
Cu 10.800000 43.200000 0.000000
Cu 10.800000 45.000000 1.800000
Cu 12.600000 43.200000 1.800000
Cu 12.600000 45.000000 0.000000
Cu 10.800000 43.200000 3.600000
Cu 10.800000 45.000000 5.400000
Cu 12.600000 43.200000 5.400000
Cu 12.600000 45.000000 3.600000
Cu 10.800000 46.800000 0.000000
Cu 10.800000 48.600000 1.800000
Cu 12.600000 46.800000 1.800000
Cu 12.600000 48.600000 0.000000
Cu 10.800000 46.800000 3.600000
Cu 10.800000 48.600000 5.400000
Cu 12.600000 46.800000 5.400000
Cu 12.600000 48.600000 3.600000
Cu 10.800000 50.400000 0.000000
Cu 10.800000 52.200000 1.800000
Cu 12.600000 50.400000 1.800000
Cu 12.600000 52.200000 0.000000
Cu 10.800000 50.400000 3.600000
Cu 10.800000 52.200000 5.400000
Cu 12.600000 50.400000 5.400000
Cu 12.600000 52.200000 3.600000
Cu 10.800000 54.000000 0.000000
Cu 10.800000 55.800000 1.800000
Cu 12.600000 54.000000 1.800000
Cu 12.600000 55.800000 0.000000
Cu 10.800000 54.000000 3.600000
Cu 10.800000 55.800000 5.400000
Cu 12.600000 54.000000 5.400000
Cu 12.600000 55.800000 3.600000
Cu 14.400000 0.000000 0.000000
Cu 14.400000 1.800000 1.800000
Cu 16.200000 0.000000 1.800000
Cu 16.200000 1.800000 0.000000
Cu 14.400000 0.000000 3.600000
Cu 14.400000 1.800000 5.400000
Cu 16.200000 0.000000 5.400000
Cu 16.200000 1.800000 3.600000
Cu 14.400000 3.600000 0.000000
Cu 14.400000 5.400000 1.800000
Cu 16.200000 3.600000 1.800000
Cu 16.200000 5.400000 0.000000
Cu 14.400000 3.600000 3.600000
Cu 14.400000 5.400000 5.400000
Cu 16.200000 3.600000 5.400000
Cu 16.200000 5.400000 3.600000
Cu 14.400000 7.200000 0.000000
Cu 14.400000 9.000000 1.800000
Cu 16.200000 7.200000 1.800000
Cu 16.200000 9.000000 0.000000
Cu 14.400000 7.200000 3.600000
Cu 14.400000 9.000000 5.400000
Cu 16.200000 7.200000 5.400000
Cu 16.200000 9.000000 3.600000
Cu 14.400000 10.800000 0.000000
Cu 14.400000 12.600000 1.800000
Cu 16.200000 10.800000 1.800000
Cu 16.200000 12.600000 0.000000
Cu 14.400000 10.800000 3.600000
Cu 14.400000 12.600000 5.400000
Cu 16.200000 10.800000 5.400000
Cu 16.200000 12.600000 3.600000
Cu 14.400000 14.400000 0.000000
Cu 14.400000 16.200000 1.800000
Cu 16.200000 14.400000 1.800000
Cu 16.200000 16.200000 0.000000
Cu 14.400000 14.400000 3.600000
Cu 14.400000 16.200000 5.400000
Cu 16.200000 14.400000 5.400000
Cu 16.200000 16.200000 3.600000
Cu 14.400000 18.000000 0.000000
Cu 14.400000 19.800000 1.800000
Cu 16.200000 18.000000 1.800000
Cu 16.200000 19.800000 0.000000
Cu 14.400000 18.000000 3.600000
Cu 14.400000 19.800000 5.400000
Cu 16.200000 18.000000 5.400000
Cu 16.200000 19.800000 3.600000
Cu 14.400000 21.600000 0.000000
Cu 14.400000 23.400000 1.800000
Cu 16.200000 21.600000 1.800000
Cu 16.200000 23.400000 0.000000
Cu 14.400000 21.600000 3.600000
Cu 14.400000 23.400000 5.400000
Cu 16.200000 21.600000 5.400000
Cu 16.200000 23.400000 3.600000
Cu 14.400000 25.200000 0.000000
Cu 14.400000 27.000000 1.800000
Cu 16.200000 25.200000 1.800000
Cu 16.200000 27.000000 0.000000
Cu 14.400000 25.200000 3.600000
Cu 14.400000 27.000000 5.400000
Cu 16.200000 25.200000 5.400000
Cu 16.200000 27.000000 3.600000
Cu 14.400000 28.800000 0.000000
Cu 14.400000 30.600000 1.800000
Cu 16.200000 28.800000 1.800000
Cu 16.200000 30.600000 0.000000
Cu 14.400000 28.800000 3.600000
Cu 14.400000 30.600000 5.400000
Cu 16.200000 28.800000 5.400000
Cu 16.200000 30.600000 3.600000
Cu 14.400000 32.400000 0.000000
Cu 14.400000 34.200000 1.800000
Cu 16.200000 32.400000 1.800000
Cu 16.200000 34.200000 0.000000
Cu 14.400000 32.400000 3.600000
Cu 14.400000 34.200000 5.400000
Cu 16.200000 32.400000 5.400000
Cu 16.200000 34.200000 3.600000
Cu 14.400000 36.000000 0.000000
Cu 14.400000 37.800000 1.800000
Cu 16.200000 36.000000 1.800000
Cu 16.200000 37.800000 0.000000
Cu 14.400000 36.000000 3.600000
Cu 14.400000 37.800000 5.400000
Cu 16.200000 36.000000 5.400000
Cu 16.200000 37.800000 3.600000
Cu 14.400000 39.600000 0.000000
Cu 14.400000 41.400000 1.800000
Cu 16.200000 39.600000 1.800000
Cu 16.200000 41.400000 0.000000
Cu 14.400000 39.600000 3.600000
Cu 14.400000 41.400000 5.400000
Cu 16.200000 39.600000 5.400000
Cu 16.200000 41.400000 3.600000
Cu 14.400000 43.200000 0.000000
Cu 14.400000 45.000000 1.800000
Cu 16.200000 43.200000 1.800000
Cu 16.200000 45.000000 0.000000
Cu 14.400000 43.200000 3.600000
Cu 14.400000 45.000000 5.400000
Cu 16.200000 43.200000 5.400000
Cu 16.200000 45.000000 3.600000
Cu 14.400000 46.800000 0.000000
Cu 14.400000 48.600000 1.800000
Cu 16.200000 46.800000 1.800000
Cu 16.200000 48.600000 0.000000
Cu 14.400000 46.800000 3.600000
Cu 14.400000 48.600000 5.400000
Cu 16.200000 46.800000 5.400000
Cu 16.200000 48.600000 3.600000
Cu 14.400000 50.400000 0.000000
Cu 14.400000 52.200000 1.800000
Cu 16.200000 50.400000 1.800000
Cu 16.200000 52.200000 0.000000
Cu 14.400000 50.400000 3.600000
Cu 14.400000 52.200000 5.400000
Cu 16.200000 50.400000 5.400000
Cu 16.200000 52.200000 3.600000
Cu 14.400000 54.000000 0.000000
Cu 14.400000 55.800000 1.800000
Cu 16.200000 54.000000 1.800000
Cu 16.200000 55.800000 0.000000
Cu 14.400000 54.000000 3.600000
Cu 14.400000 55.800000 5.400000
Cu 16.200000 54.000000 5.400000
Cu 16.200000 55.800000 3.600000
Cu 18.000000 0.000000 0.000000
Cu 18.000000 1.800000 1.800000
Cu 19.800000 0.000000 1.800000
Cu 19.800000 1.800000 0.000000
Cu 18.000000 0.000000 3.600000
Cu 18.000000 1.800000 5.400000
Cu 19.800000 0.000000 5.400000
Cu 19.800000 1.800000 3.600000
Cu 18.000000 3.600000 0.000000
Cu 18.000000 5.400000 1.800000
Cu 19.800000 3.600000 1.800000
Cu 19.800000 5.400000 0.000000
Cu 18.000000 3.600000 3.600000
Cu 18.000000 5.400000 5.400000
Cu 19.800000 3.600000 5.400000
Cu 19.800000 5.400000 3.600000
Cu 18.000000 7.200000 0.000000
Cu 18.000000 9.000000 1.800000
Cu 19.800000 7.200000 1.800000
Cu 19.800000 9.000000 0.000000
Cu 18.000000 7.200000 3.600000
Cu 18.000000 9.000000 5.400000
Cu 19.800000 7.200000 5.400000
Cu 19.800000 9.000000 3.600000
Cu 18.000000 10.800000 0.000000
Cu 18.000000 12.600000 1.800000
Cu 19.800000 10.800000 1.800000
Cu 19.800000 12.600000 0.000000
Cu 18.000000 10.800000 3.600000
Cu 18.000000 12.600000 5.400000
Cu 19.800000 10.800000 5.400000
Cu 19.800000 12.600000 3.600000
Cu 18.000000 14.400000 0.000000
Cu 18.000000 16.200000 1.800000
Cu 19.800000 14.400000 1.800000
Cu 19.800000 16.200000 0.000000
Cu 18.000000 14.400000 3.600000
Cu 18.000000 16.200000 5.400000
Cu 19.800000 14.400000 5.400000
Cu 19.800000 16.200000 3.600000
Cu 18.000000 18.000000 0.000000
Cu 18.000000 19.800000 1.800000
Cu 19.800000 18.000000 1.800000
Cu 19.800000 19.800000 0.000000
Cu 18.000000 18.000000 3.600000
Cu 18.000000 19.800000 5.400000
Cu 19.800000 18.000000 5.400000
Cu 19.800000 19.800000 3.600000
Cu 18.000000 21.600000 0.000000
Cu 18.000000 23.400000 1.800000
Cu 19.800000 21.600000 1.800000
Cu 19.800000 23.400000 0.000000
Cu 18.000000 21.600000 3.600000
Cu 18.000000 23.400000 5.400000
Cu 19.800000 21.600000 5.400000
Cu 19.800000 23.400000 3.600000
Cu 18.000000 25.200000 0.000000
Cu 18.000000 27.000000 1.800000
Cu 19.800000 25.200000 1.800000
Cu 19.800000 27.000000 0.000000
Cu 18.000000 25.200000 3.600000
Cu 18.000000 27.000000 5.400000
Cu 19.800000 25.200000 5.400000
Cu 19.800000 27.000000 3.600000
Cu 18.000000 28.800000 0.000000
Cu 18.000000 30.600000 1.800000
Cu 19.800000 28.800000 1.800000
Cu 19.800000 30.600000 0.000000
Cu 18.000000 28.800000 3.600000
Cu 18.000000 30.600000 5.400000
Cu 19.800000 28.800000 5.400000
Cu 19.800000 30.600000 3.600000
Cu 18.000000 32.400000 0.000000
Cu 18.000000 34.200000 1.800000
Cu 19.800000 32.400000 1.800000
Cu 19.800000 34.200000 0.000000
Cu 18.000000 32.400000 3.600000
Cu 18.000000 34.200000 5.400000
Cu 19.800000 32.400000 5.400000
Cu 19.800000 34.200000 3.600000
Cu 18.000000 36.000000 0.000000
Cu 18.000000 37.800000 1.800000
Cu 19.800000 36.000000 1.800000
Cu 19.800000 37.800000 0.000000
Cu 18.000000 36.000000 3.600000
Cu 18.000000 37.800000 5.400000
Cu 19.800000 36.000000 5.400000
Cu 19.800000 37.800000 3.600000
Cu 18.000000 39.600000 0.000000
Cu 18.000000 41.400000 1.800000
Cu 19.800000 39.600000 1.800000
Cu 19.800000 41.400000 0.000000
Cu 18.000000 39.600000 3.600000
Cu 18.000000 41.400000 5.400000
Cu 19.800000 39.600000 5.400000
Cu 19.800000 41.400000 3.600000
Cu 18.000000 43.200000 0.000000
Cu 18.000000 45.000000 1.800000
Cu 19.800000 43.200000 1.800000
Cu 19.800000 45.000000 0.000000
Cu 18.000000 43.200000 3.600000
Cu 18.000000 45.000000 5.400000
Cu 19.800000 43.200000 5.400000
Cu 19.800000 45.000000 3.600000
Cu 18.000000 46.800000 0.000000
Cu 18.000000 48.600000 1.800000
Cu 19.800000 46.800000 1.800000
Cu 19.800000 48.600000 0.000000
Cu 18.000000 46.800000 3.600000
Cu 18.000000 48.600000 5.400000
Cu 19.800000 46.800000 5.400000
Cu 19.800000 48.600000 3.600000
Cu 18.000000 50.400000 0.000000
Cu 18.000000 52.200000 1.800000
Cu 19.800000 50.400000 1.800000
Cu 19.800000 52.200000 0.000000
Cu 18.000000 50.400000 3.600000
Cu 18.000000 52.200000 5.400000
Cu 19.800000 50.400000 5.400000
Cu 19.800000 52.200000 3.600000
Cu 18.000000 54.000000 0.000000
Cu 18.000000 55.800000 1.800000
Cu 19.800000 54.000000 1.800000
Cu 19.800000 55.800000 0.000000
Cu 18.000000 54.000000 3.600000
Cu 18.000000 55.800000 5.400000
Cu 19.800000 54.000000 5.400000
Cu 19.800000 55.800000 3.600000
Cu 21.600000 0.000000 0.000000
Cu 21.600000 1.800000 1.800000
Cu 23.400000 0.000000 1.800000
Cu 23.400000 1.800000 0.000000
Cu 21.600000 0.000000 3.600000
Cu 21.600000 1.800000 5.400000
Cu 23.400000 0.000000 5.400000
Cu 23.400000 1.800000 3.600000
Cu 21.600000 3.600000 0.000000
Cu 21.600000 5.400000 1.800000
Cu 23.400000 3.600000 1.800000
Cu 23.400000 5.400000 0.000000
Cu 21.600000 3.600000 3.600000
Cu 21.600000 5.400000 5.400000
Cu 23.400000 3.600000 5.400000
Cu 23.400000 5.400000 3.600000
Cu 21.600000 7.200000 0.000000
Cu 21.600000 9.000000 1.800000
Cu 23.400000 7.200000 1.800000
Cu 23.400000 9.000000 0.000000
Cu 21.600000 7.200000 3.600000
Cu 21.600000 9.000000 5.400000
Cu 23.400000 7.200000 5.400000
Cu 23.400000 9.000000 3.600000
Cu 21.600000 10.800000 0.000000
Cu 21.600000 12.600000 1.800000
Cu 23.400000 10.800000 1.800000
Cu 23.400000 12.600000 0.000000
Cu 21.600000 10.800000 3.600000
Cu 21.600000 12.600000 5.400000
Cu 23.400000 10.800000 5.400000
Cu 23.400000 12.600000 3.600000
Cu 21.600000 14.400000 0.000000
Cu 21.600000 16.200000 1.800000
Cu 23.400000 14.400000 1.800000
Cu 23.400000 16.200000 0.000000
Cu 21.600000 14.400000 3.600000
Cu 21.600000 16.200000 5.400000
Cu 23.400000 14.400000 5.400000
Cu 23.400000 16.200000 3.600000
Cu 21.600000 18.000000 0.000000
Cu 21.600000 19.800000 1.800000
Cu 23.400000 18.000000 1.800000
Cu 23.400000 19.800000 0.000000
Cu 21.600000 18.000000 3.600000
Cu 21.600000 19.800000 5.400000
Cu 23.400000 18.000000 5.400000
Cu 23.400000 19.800000 3.600000
Cu 21.600000 21.600000 0.000000
Cu 21.600000 23.400000 1.800000
Cu 23.400000 21.600000 1.800000
Cu 23.400000 23.400000 0.000000
Cu 21.600000 21.600000 3.600000
Cu 21.600000 23.400000 5.400000
Cu 23.400000 21.600000 5.400000
Cu 23.400000 23.400000 3.600000
Cu 21.600000 25.200000 0.000000
Cu 21.600000 27.000000 1.800000
Cu 23.400000 25.200000 1.800000
Cu 23.400000 27.000000 0.000000
Cu 21.600000 25.200000 3.600000
Cu 21.600000 27.000000 5.400000
Cu 23.400000 25.200000 5.400000
Cu 23.400000 27.000000 3.600000
Cu 21.600000 28.800000 0.000000
Cu 21.600000 30.600000 1.800000
Cu 23.400000 28.800000 1.800000
Cu 23.400000 30.600000 0.000000
Cu 21.600000 28.800000 3.600000
Cu 21.600000 30.600000 5.400000
Cu 23.400000 28.800000 5.400000
Cu 23.400000 30.600000 3.600000
Cu 21.600000 32.400000 0.000000
Cu 21.600000 34.200000 1.800000
Cu 23.400000 32.400000 1.800000
Cu 23.400000 34.200000 0.000000
Cu 21.600000 32.400000 3.600000
Cu 21.600000 34.200000 5.400000
Cu 23.400000 32.400000 5.400000
Cu 23.400000 34.200000 3.600000
Cu 21.600000 36.000000 0.000000
Cu 21.600000 37.800000 1.800000
Cu 23.400000 36.000000 1.800000
Cu 23.400000 37.800000 0.000000
Cu 21.600000 36.000000 3.600000
Cu 21.600000 37.800000 5.400000
Cu 23.400000 36.000000 5.400000
Cu 23.400000 37.800000 3.600000
Cu 21.600000 39.600000 0.000000
Cu 21.600000 41.400000 1.800000
Cu 23.400000 39.600000 1.800000
Cu 23.400000 41.400000 0.000000
Cu 21.600000 39.600000 3.600000
Cu 21.600000 41.400000 5.400000
Cu 23.400000 39.600000 5.400000
Cu 23.400000 41.400000 3.600000
Cu 21.600000 43.200000 0.000000
Cu 21.600000 45.000000 1.800000
Cu 23.400000 43.200000 1.800000
Cu 23.400000 45.000000 0.000000
Cu 21.600000 43.200000 3.600000
Cu 21.600000 45.000000 5.400000
Cu 23.400000 43.200000 5.400000
Cu 23.400000 45.000000 3.600000
Cu 21.600000 46.800000 0.000000
Cu 21.600000 48.600000 1.800000
Cu 23.400000 46.800000 1.800000
Cu 23.400000 48.600000 0.000000
Cu 21.600000 46.800000 3.600000
Cu 21.600000 48.600000 5.400000
Cu 23.400000 46.800000 5.400000
Cu 23.400000 48.600000 3.600000
Cu 21.600000 50.400000 0.000000
Cu 21.600000 52.200000 1.800000
Cu 23.400000 50.400000 1.800000
Cu 23.400000 52.200000 0.000000
Cu 21.600000 50.400000 3.600000
Cu 21.600000 52.200000 5.400000
Cu 23.400000 50.400000 5.400000
Cu 23.400000 52.200000 3.600000
Cu 21.600000 54.000000 0.000000
Cu 21.600000 55.800000 1.800000
Cu 23.400000 54.000000 1.800000
Cu 23.400000 55.800000 0.000000
Cu 21.600000 54.000000 3.600000
Cu 21.600000 55.800000 5.400000
Cu 23.400000 54.000000 5.400000
Cu 23.400000 55.800000 3.600000
Cu 25.200000 0.000000 0.000000
Cu 25.200000 1.800000 1.800000
Cu 27.000000 0.000000 1.800000
Cu 27.000000 1.800000 0.000000
Cu 25.200000 0.000000 3.600000
Cu 25.200000 1.800000 5.400000
Cu 27.000000 0.000000 5.400000
Cu 27.000000 1.800000 3.600000
Cu 25.200000 3.600000 0.000000
Cu 25.200000 5.400000 1.800000
Cu 27.000000 3.600000 1.800000
Cu 27.000000 5.400000 0.000000
Cu 25.200000 3.600000 3.600000
Cu 25.200000 5.400000 5.400000
Cu 27.000000 3.600000 5.400000
Cu 27.000000 5.400000 3.600000
Cu 25.200000 7.200000 0.000000
Cu 25.200000 9.000000 1.800000
Cu 27.000000 7.200000 1.800000
Cu 27.000000 9.000000 0.000000
Cu 25.200000 7.200000 3.600000
Cu 25.200000 9.000000 5.400000
Cu 27.000000 7.200000 5.400000
Cu 27.000000 9.000000 3.600000
Cu 25.200000 10.800000 0.000000
Cu 25.200000 12.600000 1.800000
Cu 27.000000 10.800000 1.800000
Cu 27.000000 12.600000 0.000000
Cu 25.200000 10.800000 3.600000
Cu 25.200000 12.600000 5.400000
Cu 27.000000 10.800000 5.400000
Cu 27.000000 12.600000 3.600000
Cu 25.200000 14.400000 0.000000
Cu 25.200000 16.200000 1.800000
Cu 27.000000 14.400000 1.800000
Cu 27.000000 16.200000 0.000000
Cu 25.200000 14.400000 3.600000
Cu 25.200000 16.200000 5.400000
Cu 27.000000 14.400000 5.400000
Cu 27.000000 16.200000 3.600000
Cu 25.200000 18.000000 0.000000
Cu 25.200000 19.800000 1.800000
Cu 27.000000 18.000000 1.800000
Cu 27.000000 19.800000 0.000000
Cu 25.200000 18.000000 3.600000
Cu 25.200000 19.800000 5.400000
Cu 27.000000 18.000000 5.400000
Cu 27.000000 19.800000 3.600000
Cu 25.200000 21.600000 0.000000
Cu 25.200000 23.400000 1.800000
Cu 27.000000 21.600000 1.800000
Cu 27.000000 23.400000 0.000000
Cu 25.200000 21.600000 3.600000
Cu 25.200000 23.400000 5.400000
Cu 27.000000 21.600000 5.400000
Cu 27.000000 23.400000 3.600000
Cu 25.200000 25.200000 0.000000
Cu 25.200000 27.000000 1.800000
Cu 27.000000 25.200000 1.800000
Cu 27.000000 27.000000 0.000000
Cu 25.200000 25.200000 3.600000
Cu 25.200000 27.000000 5.400000
Cu 27.000000 25.200000 5.400000
Cu 27.000000 27.000000 3.600000
Cu 25.200000 28.800000 0.000000
Cu 25.200000 30.600000 1.800000
Cu 27.000000 28.800000 1.800000
Cu 27.000000 30.600000 0.000000
Cu 25.200000 28.800000 3.600000
Cu 25.200000 30.600000 5.400000
Cu 27.000000 28.800000 5.400000
Cu 27.000000 30.600000 3.600000
Cu 25.200000 32.400000 0.000000
Cu 25.200000 34.200000 1.800000
Cu 27.000000 32.400000 1.800000
Cu 27.000000 34.200000 0.000000
Cu 25.200000 32.400000 3.600000
Cu 25.200000 34.200000 5.400000
Cu 27.000000 32.400000 5.400000
Cu 27.000000 34.200000 3.600000
Cu 25.200000 36.000000 0.000000
Cu 25.200000 37.800000 1.800000
Cu 27.000000 36.000000 1.800000
Cu 27.000000 37.800000 0.000000
Cu 25.200000 36.000000 3.600000
Cu 25.200000 37.800000 5.400000
Cu 27.000000 36.000000 5.400000
Cu 27.000000 37.800000 3.600000
Cu 25.200000 39.600000 0.000000
Cu 25.200000 41.400000 1.800000
Cu 27.000000 39.600000 1.800000
Cu 27.000000 41.400000 0.000000
Cu 25.200000 39.600000 3.600000
Cu 25.200000 41.400000 5.400000
Cu 27.000000 39.600000 5.400000
Cu 27.000000 41.400000 3.600000
Cu 25.200000 43.200000 0.000000
Cu 25.200000 45.000000 1.800000
Cu 27.000000 43.200000 1.800000
Cu 27.000000 45.000000 0.000000
Cu 25.200000 43.200000 3.600000
Cu 25.200000 45.000000 5.400000
Cu 27.000000 43.200000 5.400000
Cu 27.000000 45.000000 3.600000
Cu 25.200000 46.800000 0.000000
Cu 25.200000 48.600000 1.800000
Cu 27.000000 46.800000 1.800000
Cu 27.000000 48.600000 0.000000
Cu 25.200000 46.800000 3.600000
Cu 25.200000 48.600000 5.400000
Cu 27.000000 46.800000 5.400000
Cu 27.000000 48.600000 3.600000
Cu 25.200000 50.400000 0.000000
Cu 25.200000 52.200000 1.800000
Cu 27.000000 50.400000 1.800000
Cu 27.000000 52.200000 0.000000
Cu 25.200000 50.400000 3.600000
Cu 25.200000 52.200000 5.400000
Cu 27.000000 50.400000 5.400000
Cu 27.000000 52.200000 3.600000
Cu 25.200000 54.000000 0.000000
Cu 25.200000 55.800000 1.800000
Cu 27.000000 54.000000 1.800000
Cu 27.000000 55.800000 0.000000
Cu 25.200000 54.000000 3.600000
Cu 25.200000 55.800000 5.400000
Cu 27.000000 54.000000 5.400000
Cu 27.000000 55.800000 3.600000
Cu 28.800000 0.000000 0.000000
Cu 28.800000 1.800000 1.800000
Cu 30.600000 0.000000 1.800000
Cu 30.600000 1.800000 0.000000
Cu 28.800000 0.000000 3.600000
Cu 28.800000 1.800000 5.400000
Cu 30.600000 0.000000 5.400000
Cu 30.600000 1.800000 3.600000
Cu 28.800000 3.600000 0.000000
Cu 28.800000 5.400000 1.800000
Cu 30.600000 3.600000 1.800000
Cu 30.600000 5.400000 0.000000
Cu 28.800000 3.600000 3.600000
Cu 28.800000 5.400000 5.400000
Cu 30.600000 3.600000 5.400000
Cu 30.600000 5.400000 3.600000
Cu 28.800000 7.200000 0.000000
Cu 28.800000 9.000000 1.800000
Cu 30.600000 7.200000 1.800000
Cu 30.600000 9.000000 0.000000
Cu 28.800000 7.200000 3.600000
Cu 28.800000 9.000000 5.400000
Cu 30.600000 7.200000 5.400000
Cu 30.600000 9.000000 3.600000
Cu 28.800000 10.800000 0.000000
Cu 28.800000 12.600000 1.800000
Cu 30.600000 10.800000 1.800000
Cu 30.600000 12.600000 0.000000
Cu 28.800000 10.800000 3.600000
Cu 28.800000 12.600000 5.400000
Cu 30.600000 10.800000 5.400000
Cu 30.600000 12.600000 3.600000
Cu 28.800000 14.400000 0.000000
Cu 28.800000 16.200000 1.800000
Cu 30.600000 14.400000 1.800000
Cu 30.600000 16.200000 0.000000
Cu 28.800000 14.400000 3.600000
Cu 28.800000 16.200000 5.400000
Cu 30.600000 14.400000 5.400000
Cu 30.600000 16.200000 3.600000
Cu 28.800000 18.000000 0.000000
Cu 28.800000 19.800000 1.800000
Cu 30.600000 18.000000 1.800000
Cu 30.600000 19.800000 0.000000
Cu 28.800000 18.000000 3.600000
Cu 28.800000 19.800000 5.400000
Cu 30.600000 18.000000 5.400000
Cu 30.600000 19.800000 3.600000
Cu 28.800000 21.600000 0.000000
Cu 28.800000 23.400000 1.800000
Cu 30.600000 21.600000 1.800000
Cu 30.600000 23.400000 0.000000
Cu 28.800000 21.600000 3.600000
Cu 28.800000 23.400000 5.400000
Cu 30.600000 21.600000 5.400000
Cu 30.600000 23.400000 3.600000
Cu 28.800000 25.200000 0.000000
Cu 28.800000 27.000000 1.800000
Cu 30.600000 25.200000 1.800000
Cu 30.600000 27.000000 0.000000
Cu 28.800000 25.200000 3.600000
Cu 28.800000 27.000000 5.400000
Cu 30.600000 25.200000 5.400000
Cu 30.600000 27.000000 3.600000
Cu 28.800000 28.800000 0.000000
Cu 28.800000 30.600000 1.800000
Cu 30.600000 28.800000 1.800000
Cu 30.600000 30.600000 0.000000
Cu 28.800000 28.800000 3.600000
Cu 28.800000 30.600000 5.400000
Cu 30.600000 28.800000 5.400000
Cu 30.600000 30.600000 3.600000
Cu 28.800000 32.400000 0.000000
Cu 28.800000 34.200000 1.800000
Cu 30.600000 32.400000 1.800000
Cu 30.600000 34.200000 0.000000
Cu 28.800000 32.400000 3.600000
Cu 28.800000 34.200000 5.400000
Cu 30.600000 32.400000 5.400000
Cu 30.600000 34.200000 3.600000
Cu 28.800000 36.000000 0.000000
Cu 28.800000 37.800000 1.800000
Cu 30.600000 36.000000 1.800000
Cu 30.600000 37.800000 0.000000
Cu 28.800000 36.000000 3.600000
Cu 28.800000 37.800000 5.400000
Cu 30.600000 36.000000 5.400000
Cu 30.600000 37.800000 3.600000
Cu 28.800000 39.600000 0.000000
Cu 28.800000 41.400000 1.800000
Cu 30.600000 39.600000 1.800000
Cu 30.600000 41.400000 0.000000
Cu 28.800000 39.600000 3.600000
Cu 28.800000 41.400000 5.400000
Cu 30.600000 39.600000 5.400000
Cu 30.600000 41.400000 3.600000
Cu 28.800000 43.200000 0.000000
Cu 28.800000 45.000000 1.800000
Cu 30.600000 43.200000 1.800000
Cu 30.600000 45.000000 0.000000
Cu 28.800000 43.200000 3.600000
Cu 28.800000 45.000000 5.400000
Cu 30.600000 43.200000 5.400000
Cu 30.600000 45.000000 3.600000
Cu 28.800000 46.800000 0.000000
Cu 28.800000 48.600000 1.800000
Cu 30.600000 46.800000 1.800000
Cu 30.600000 48.600000 0.000000
Cu 28.800000 46.800000 3.600000
Cu 28.800000 48.600000 5.400000
Cu 30.600000 46.800000 5.400000
Cu 30.600000 48.600000 3.600000
Cu 28.800000 50.400000 0.000000
Cu 28.800000 52.200000 1.800000
Cu 30.600000 50.400000 1.800000
Cu 30.600000 52.200000 0.000000
Cu 28.800000 50.400000 3.600000
Cu 28.800000 52.200000 5.400000
Cu 30.600000 50.400000 5.400000
Cu 30.600000 52.200000 3.600000
Cu 28.800000 54.000000 0.000000
Cu 28.800000 55.800000 1.800000
Cu 30.600000 54.000000 1.800000
Cu 30.600000 55.800000 0.000000
Cu 28.800000 54.000000 3.600000
Cu 28.800000 55.800000 5.400000
Cu 30.600000 54.000000 5.400000
Cu 30.600000 55.800000 3.600000
Cu 32.400000 0.000000 0.000000
Cu 32.400000 1.800000 1.800000
Cu 34.200000 0.000000 1.800000
Cu 34.200000 1.800000 0.000000
Cu 32.400000 0.000000 3.600000
Cu 32.400000 1.800000 5.400000
Cu 34.200000 0.000000 5.400000
Cu 34.200000 1.800000 3.600000
Cu 32.400000 3.600000 0.000000
Cu 32.400000 5.400000 1.800000
Cu 34.200000 3.600000 1.800000
Cu 34.200000 5.400000 0.000000
Cu 32.400000 3.600000 3.600000
Cu 32.400000 5.400000 5.400000
Cu 34.200000 3.600000 5.400000
Cu 34.200000 5.400000 3.600000
Cu 32.400000 7.200000 0.000000
Cu 32.400000 9.000000 1.800000
Cu 34.200000 7.200000 1.800000
Cu 34.200000 9.000000 0.000000
Cu 32.400000 7.200000 3.600000
Cu 32.400000 9.000000 5.400000
Cu 34.200000 7.200000 5.400000
Cu 34.200000 9.000000 3.600000
Cu 32.400000 10.800000 0.000000
Cu 32.400000 12.600000 1.800000
Cu 34.200000 10.800000 1.800000
Cu 34.200000 12.600000 0.000000
Cu 32.400000 10.800000 3.600000
Cu 32.400000 12.600000 5.400000
Cu 34.200000 10.800000 5.400000
Cu 34.200000 12.600000 3.600000
Cu 32.400000 14.400000 0.000000
Cu 32.400000 16.200000 1.800000
Cu 34.200000 14.400000 1.800000
Cu 34.200000 16.200000 0.000000
Cu 32.400000 14.400000 3.600000
Cu 32.400000 16.200000 5.400000
Cu 34.200000 14.400000 5.400000
Cu 34.200000 16.200000 3.600000
Cu 32.400000 18.000000 0.000000
Cu 32.400000 19.800000 1.800000
Cu 34.200000 18.000000 1.800000
Cu 34.200000 19.800000 0.000000
Cu 32.400000 18.000000 3.600000
Cu 32.400000 19.800000 5.400000
Cu 34.200000 18.000000 5.400000
Cu 34.200000 19.800000 3.600000
Cu 32.400000 21.600000 0.000000
Cu 32.400000 23.400000 1.800000
Cu 34.200000 21.600000 1.800000
Cu 34.200000 23.400000 0.000000
Cu 32.400000 21.600000 3.600000
Cu 32.400000 23.400000 5.400000
Cu 34.200000 21.600000 5.400000
Cu 34.200000 23.400000 3.600000
Cu 32.400000 25.200000 0.000000
Cu 32.400000 27.000000 1.800000
Cu 34.200000 25.200000 1.800000
Cu 34.200000 27.000000 0.000000
Cu 32.400000 25.200000 3.600000
Cu 32.400000 27.000000 5.400000
Cu 34.200000 25.200000 5.400000
Cu 34.200000 27.000000 3.600000
Cu 32.400000 28.800000 0.000000
Cu 32.400000 30.600000 1.800000
Cu 34.200000 28.800000 1.800000
Cu 34.200000 30.600000 0.000000
Cu 32.400000 28.800000 3.600000
Cu 32.400000 30.600000 5.400000
Cu 34.200000 28.800000 5.400000
Cu 34.200000 30.600000 3.600000
Cu 32.400000 32.400000 0.000000
Cu 32.400000 34.200000 1.800000
Cu 34.200000 32.400000 1.800000
Cu 34.200000 34.200000 0.000000
Cu 32.400000 32.400000 3.600000
Cu 32.400000 34.200000 5.400000
Cu 34.200000 32.400000 5.400000
Cu 34.200000 34.200000 3.600000
Cu 32.400000 36.000000 0.000000
Cu 32.400000 37.800000 1.800000
Cu 34.200000 36.000000 1.800000
Cu 34.200000 37.800000 0.000000
Cu 32.400000 36.000000 3.600000
Cu 32.400000 37.800000 5.400000
Cu 34.200000 36.000000 5.400000
Cu 34.200000 37.800000 3.600000
Cu 32.400000 39.600000 0.000000
Cu 32.400000 41.400000 1.800000
Cu 34.200000 39.600000 1.800000
Cu 34.200000 41.400000 0.000000
Cu 32.400000 39.600000 3.600000
Cu 32.400000 41.400000 5.400000
Cu 34.200000 39.600000 5.400000
Cu 34.200000 41.400000 3.600000
Cu 32.400000 43.200000 0.000000
Cu 32.400000 45.000000 1.800000
Cu 34.200000 43.200000 1.800000
Cu 34.200000 45.000000 0.000000
Cu 32.400000 43.200000 3.600000
Cu 32.400000 45.000000 5.400000
Cu 34.200000 43.200000 5.400000
Cu 34.200000 45.000000 3.600000
Cu 32.400000 46.800000 0.000000
Cu 32.400000 48.600000 1.800000
Cu 34.200000 46.800000 1.800000
Cu 34.200000 48.600000 0.000000
Cu 32.400000 46.800000 3.600000
Cu 32.400000 48.600000 5.400000
Cu 34.200000 46.800000 5.400000
Cu 34.200000 48.600000 3.600000
Cu 32.400000 50.400000 0.000000
Cu 32.400000 52.200000 1.800000
Cu 34.200000 50.400000 1.800000
Cu 34.200000 52.200000 0.000000
Cu 32.400000 50.400000 3.600000
Cu 32.400000 52.200000 5.400000
Cu 34.200000 50.400000 5.400000
Cu 34.200000 52.200000 3.600000
Cu 32.400000 54.000000 0.000000
Cu 32.400000 55.800000 1.800000
Cu 34.200000 54.000000 1.800000
Cu 34.200000 55.800000 0.000000
Cu 32.400000 54.000000 3.600000
Cu 32.400000 55.800000 5.400000
Cu 34.200000 54.000000 5.400000
Cu 34.200000 55.800000 3.600000
Cu 36.000000 0.000000 0.000000
Cu 36.000000 1.800000 1.800000
Cu 37.800000 0.000000 1.800000
Cu 37.800000 1.800000 0.000000
Cu 36.000000 0.000000 3.600000
Cu 36.000000 1.800000 5.400000
Cu 37.800000 0.000000 5.400000
Cu 37.800000 1.800000 3.600000
Cu 36.000000 3.600000 0.000000
Cu 36.000000 5.400000 1.800000
Cu 37.800000 3.600000 1.800000
Cu 37.800000 5.400000 0.000000
Cu 36.000000 3.600000 3.600000
Cu 36.000000 5.400000 5.400000
Cu 37.800000 3.600000 5.400000
Cu 37.800000 5.400000 3.600000
Cu 36.000000 7.200000 0.000000
Cu 36.000000 9.000000 1.800000
Cu 37.800000 7.200000 1.800000
Cu 37.800000 9.000000 0.000000
Cu 36.000000 7.200000 3.600000
Cu 36.000000 9.000000 5.400000
Cu 37.800000 7.200000 5.400000
Cu 37.800000 9.000000 3.600000
Cu 36.000000 10.800000 0.000000
Cu 36.000000 12.600000 1.800000
Cu 37.800000 10.800000 1.800000
Cu 37.800000 12.600000 0.000000
Cu 36.000000 10.800000 3.600000
Cu 36.000000 12.600000 5.400000
Cu 37.800000 10.800000 5.400000
Cu 37.800000 12.600000 3.600000
Cu 36.000000 14.400000 0.000000
Cu 36.000000 16.200000 1.800000
Cu 37.800000 14.400000 1.800000
Cu 37.800000 16.200000 0.000000
Cu 36.000000 14.400000 3.600000
Cu 36.000000 16.200000 5.400000
Cu 37.800000 14.400000 5.400000
Cu 37.800000 16.200000 3.600000
Cu 36.000000 18.000000 0.000000
Cu 36.000000 19.800000 1.800000
Cu 37.800000 18.000000 1.800000
Cu 37.800000 19.800000 0.000000
Cu 36.000000 18.000000 3.600000
Cu 36.000000 19.800000 5.400000
Cu 37.800000 18.000000 5.400000
Cu 37.800000 19.800000 3.600000
Cu 36.000000 21.600000 0.000000
Cu 36.000000 23.400000 1.800000
Cu 37.800000 21.600000 1.800000
Cu 37.800000 23.400000 0.000000
Cu 36.000000 21.600000 3.600000
Cu 36.000000 23.400000 5.400000
Cu 37.800000 21.600000 5.400000
Cu 37.800000 23.400000 3.600000
Cu 36.000000 25.200000 0.000000
Cu 36.000000 27.000000 1.800000
Cu 37.800000 25.200000 1.800000
Cu 37.800000 27.000000 0.000000
Cu 36.000000 25.200000 3.600000
Cu 36.000000 27.000000 5.400000
Cu 37.800000 25.200000 5.400000
Cu 37.800000 27.000000 3.600000
Cu 36.000000 28.800000 0.000000
Cu 36.000000 30.600000 1.800000
Cu 37.800000 28.800000 1.800000
Cu 37.800000 30.600000 0.000000
Cu 36.000000 28.800000 3.600000
Cu 36.000000 30.600000 5.400000
Cu 37.800000 28.800000 5.400000
Cu 37.800000 30.600000 3.600000
Cu 36.000000 32.400000 0.000000
Cu 36.000000 34.200000 1.800000
Cu 37.800000 32.400000 1.800000
Cu 37.800000 34.200000 0.000000
Cu 36.000000 32.400000 3.600000
Cu 36.000000 34.200000 5.400000
Cu 37.800000 32.400000 5.400000
Cu 37.800000 34.200000 3.600000
Cu 36.000000 36.000000 0.000000
Cu 36.000000 37.800000 1.800000
Cu 37.800000 36.000000 1.800000
Cu 37.800000 37.800000 0.000000
Cu 36.000000 36.000000 3.600000
Cu 36.000000 37.800000 5.400000
Cu 37.800000 36.000000 5.400000
Cu 37.800000 37.800000 3.600000
Cu 36.000000 39.600000 0.000000
Cu 36.000000 41.400000 1.800000
Cu 37.800000 39.600000 1.800000
Cu 37.800000 41.400000 0.000000
Cu 36.000000 39.600000 3.600000
Cu 36.000000 41.400000 5.400000
Cu 37.800000 39.600000 5.400000
Cu 37.800000 41.400000 3.600000
Cu 36.000000 43.200000 0.000000
Cu 36.000000 45.000000 1.800000
Cu 37.800000 43.200000 1.800000
Cu 37.800000 45.000000 0.000000
Cu 36.000000 43.200000 3.600000
Cu 36.000000 45.000000 5.400000
Cu 37.800000 43.200000 5.400000
Cu 37.800000 45.000000 3.600000
Cu 36.000000 46.800000 0.000000
Cu 36.000000 48.600000 1.800000
Cu 37.800000 46.800000 1.800000
Cu 37.800000 48.600000 0.000000
Cu 36.000000 46.800000 3.600000
Cu 36.000000 48.600000 5.400000
Cu 37.800000 46.800000 5.400000
Cu 37.800000 48.600000 3.600000
Cu 36.000000 50.400000 0.000000
Cu 36.000000 52.200000 1.800000
Cu 37.800000 50.400000 1.800000
Cu 37.800000 52.200000 0.000000
Cu 36.000000 50.400000 3.600000
Cu 36.000000 52.200000 5.400000
Cu 37.800000 50.400000 5.400000
Cu 37.800000 52.200000 3.600000
Cu 36.000000 54.000000 0.000000
Cu 36.000000 55.800000 1.800000
Cu 37.800000 54.000000 1.800000
Cu 37.800000 55.800000 0.000000
Cu 36.000000 54.000000 3.600000
Cu 36.000000 55.800000 5.400000
Cu 37.800000 54.000000 5.400000
Cu 37.800000 55.800000 3.600000
Cu 39.600000 0.000000 0.000000
Cu 39.600000 1.800000 1.800000
Cu 41.400000 0.000000 1.800000
Cu 41.400000 1.800000 0.000000
Cu 39.600000 0.000000 3.600000
Cu 39.600000 1.800000 5.400000
Cu 41.400000 0.000000 5.400000
Cu 41.400000 1.800000 3.600000
Cu 39.600000 3.600000 0.000000
Cu 39.600000 5.400000 1.800000
Cu 41.400000 3.600000 1.800000
Cu 41.400000 5.400000 0.000000
Cu 39.600000 3.600000 3.600000
Cu 39.600000 5.400000 5.400000
Cu 41.400000 3.600000 5.400000
Cu 41.400000 5.400000 3.600000
Cu 39.600000 7.200000 0.000000
Cu 39.600000 9.000000 1.800000
Cu 41.400000 7.200000 1.800000
Cu 41.400000 9.000000 0.000000
Cu 39.600000 7.200000 3.600000
Cu 39.600000 9.000000 5.400000
Cu 41.400000 7.200000 5.400000
Cu 41.400000 9.000000 3.600000
Cu 39.600000 10.800000 0.000000
Cu 39.600000 12.600000 1.800000
Cu 41.400000 10.800000 1.800000
Cu 41.400000 12.600000 0.000000
Cu 39.600000 10.800000 3.600000
Cu 39.600000 12.600000 5.400000
Cu 41.400000 10.800000 5.400000
Cu 41.400000 12.600000 3.600000
Cu 39.600000 14.400000 0.000000
Cu 39.600000 16.200000 1.800000
Cu 41.400000 14.400000 1.800000
Cu 41.400000 16.200000 0.000000
Cu 39.600000 14.400000 3.600000
Cu 39.600000 16.200000 5.400000
Cu 41.400000 14.400000 5.400000
Cu 41.400000 16.200000 3.600000
Cu 39.600000 18.000000 0.000000
Cu 39.600000 19.800000 1.800000
Cu 41.400000 18.000000 1.800000
Cu 41.400000 19.800000 0.000000
Cu 39.600000 18.000000 3.600000
Cu 39.600000 19.800000 5.400000
Cu 41.400000 18.000000 5.400000
Cu 41.400000 19.800000 3.600000
Cu 39.600000 21.600000 0.000000
Cu 39.600000 23.400000 1.800000
Cu 41.400000 21.600000 1.800000
Cu 41.400000 23.400000 0.000000
Cu 39.600000 21.600000 3.600000
Cu 39.600000 23.400000 5.400000
Cu 41.400000 21.600000 5.400000
Cu 41.400000 23.400000 3.600000
Cu 39.600000 25.200000 0.000000
Cu 39.600000 27.000000 1.800000
Cu 41.400000 25.200000 1.800000
Cu 41.400000 27.000000 0.000000
Cu 39.600000 25.200000 3.600000
Cu 39.600000 27.000000 5.400000
Cu 41.400000 25.200000 5.400000
Cu 41.400000 27.000000 3.600000
Cu 39.600000 28.800000 0.000000
Cu 39.600000 30.600000 1.800000
Cu 41.400000 28.800000 1.800000
Cu 41.400000 30.600000 0.000000
Cu 39.600000 28.800000 3.600000
Cu 39.600000 30.600000 5.400000
Cu 41.400000 28.800000 5.400000
Cu 41.400000 30.600000 3.600000
Cu 39.600000 32.400000 0.000000
Cu 39.600000 34.200000 1.800000
Cu 41.400000 32.400000 1.800000
Cu 41.400000 34.200000 0.000000
Cu 39.600000 32.400000 3.600000
Cu 39.600000 34.200000 5.400000
Cu 41.400000 32.400000 5.400000
Cu 41.400000 34.200000 3.600000
Cu 39.600000 36.000000 0.000000
Cu 39.600000 37.800000 1.800000
Cu 41.400000 36.000000 1.800000
Cu 41.400000 37.800000 0.000000
Cu 39.600000 36.000000 3.600000
Cu 39.600000 37.800000 5.400000
Cu 41.400000 36.000000 5.400000
Cu 41.400000 37.800000 3.600000
Cu 39.600000 39.600000 0.000000
Cu 39.600000 41.400000 1.800000
Cu 41.400000 39.600000 1.800000
Cu 41.400000 41.400000 0.000000
Cu 39.600000 39.600000 3.600000
Cu 39.600000 41.400000 5.400000
Cu 41.400000 39.600000 5.400000
Cu 41.400000 41.400000 3.600000
Cu 39.600000 43.200000 0.000000
Cu 39.600000 45.000000 1.800000
Cu 41.400000 43.200000 1.800000
Cu 41.400000 45.000000 0.000000
Cu 39.600000 43.200000 3.600000
Cu 39.600000 45.000000 5.400000
Cu 41.400000 43.200000 5.400000
Cu 41.400000 45.000000 3.600000
Cu 39.600000 46.800000 0.000000
Cu 39.600000 48.600000 1.800000
Cu 41.400000 46.800000 1.800000
Cu 41.400000 48.600000 0.000000
Cu 39.600000 46.800000 3.600000
Cu 39.600000 48.600000 5.400000
Cu 41.400000 46.800000 5.400000
Cu 41.400000 48.600000 3.600000
Cu 39.600000 50.400000 0.000000
Cu 39.600000 52.200000 1.800000
Cu 41.400000 50.400000 1.800000
Cu 41.400000 52.200000 0.000000
Cu 39.600000 50.400000 3.600000
Cu 39.600000 52.200000 5.400000
Cu 41.400000 50.400000 5.400000
Cu 41.400000 52.200000 3.600000
Cu 39.600000 54.000000 0.000000
Cu 39.600000 55.800000 1.800000
Cu 41.400000 54.000000 1.800000
Cu 41.400000 55.800000 0.000000
Cu 39.600000 54.000000 3.600000
Cu 39.600000 55.800000 5.400000
Cu 41.400000 54.000000 5.400000
Cu 41.400000 55.800000 3.600000
Cu 43.200000 0.000000 0.000000
Cu 43.200000 1.800000 1.800000
Cu 45.000000 0.000000 1.800000
Cu 45.000000 1.800000 0.000000
Cu 43.200000 0.000000 3.600000
Cu 43.200000 1.800000 5.400000
Cu 45.000000 0.000000 5.400000
Cu 45.000000 1.800000 3.600000
Cu 43.200000 3.600000 0.000000
Cu 43.200000 5.400000 1.800000
Cu 45.000000 3.600000 1.800000
Cu 45.000000 5.400000 0.000000
Cu 43.200000 3.600000 3.600000
Cu 43.200000 5.400000 5.400000
Cu 45.000000 3.600000 5.400000
Cu 45.000000 5.400000 3.600000
Cu 43.200000 7.200000 0.000000
Cu 43.200000 9.000000 1.800000
Cu 45.000000 7.200000 1.800000
Cu 45.000000 9.000000 0.000000
Cu 43.200000 7.200000 3.600000
Cu 43.200000 9.000000 5.400000
Cu 45.000000 7.200000 5.400000
Cu 45.000000 9.000000 3.600000
Cu 43.200000 10.800000 0.000000
Cu 43.200000 12.600000 1.800000
Cu 45.000000 10.800000 1.800000
Cu 45.000000 12.600000 0.000000
Cu 43.200000 10.800000 3.600000
Cu 43.200000 12.600000 5.400000
Cu 45.000000 10.800000 5.400000
Cu 45.000000 12.600000 3.600000
Cu 43.200000 14.400000 0.000000
Cu 43.200000 16.200000 1.800000
Cu 45.000000 14.400000 1.800000
Cu 45.000000 16.200000 0.000000
Cu 43.200000 14.400000 3.600000
Cu 43.200000 16.200000 5.400000
Cu 45.000000 14.400000 5.400000
Cu 45.000000 16.200000 3.600000
Cu 43.200000 18.000000 0.000000
Cu 43.200000 19.800000 1.800000
Cu 45.000000 18.000000 1.800000
Cu 45.000000 19.800000 0.000000
Cu 43.200000 18.000000 3.600000
Cu 43.200000 19.800000 5.400000
Cu 45.000000 18.000000 5.400000
Cu 45.000000 19.800000 3.600000
Cu 43.200000 21.600000 0.000000
Cu 43.200000 23.400000 1.800000
Cu 45.000000 21.600000 1.800000
Cu 45.000000 23.400000 0.000000
Cu 43.200000 21.600000 3.600000
Cu 43.200000 23.400000 5.400000
Cu 45.000000 21.600000 5.400000
Cu 45.000000 23.400000 3.600000
Cu 43.200000 25.200000 0.000000
Cu 43.200000 27.000000 1.800000
Cu 45.000000 25.200000 1.800000
Cu 45.000000 27.000000 0.000000
Cu 43.200000 25.200000 3.600000
Cu 43.200000 27.000000 5.400000
Cu 45.000000 25.200000 5.400000
Cu 45.000000 27.000000 3.600000
Cu 43.200000 28.800000 0.000000
Cu 43.200000 30.600000 1.800000
Cu 45.000000 28.800000 1.800000
Cu 45.000000 30.600000 0.000000
Cu 43.200000 28.800000 3.600000
Cu 43.200000 30.600000 5.400000
Cu 45.000000 28.800000 5.400000
Cu 45.000000 30.600000 3.600000
Cu 43.200000 32.400000 0.000000
Cu 43.200000 34.200000 1.800000
Cu 45.000000 32.400000 1.800000
Cu 45.000000 34.200000 0.000000
Cu 43.200000 32.400000 3.600000
Cu 43.200000 34.200000 5.400000
Cu 45.000000 32.400000 5.400000
Cu 45.000000 34.200000 3.600000
Cu 43.200000 36.000000 0.000000
Cu 43.200000 37.800000 1.800000
Cu 45.000000 36.000000 1.800000
Cu 45.000000 37.800000 0.000000
Cu 43.200000 36.000000 3.600000
Cu 43.200000 37.800000 5.400000
Cu 45.000000 36.000000 5.400000
Cu 45.000000 37.800000 3.600000
Cu 43.200000 39.600000 0.000000
Cu 43.200000 41.400000 1.800000
Cu 45.000000 39.600000 1.800000
Cu 45.000000 41.400000 0.000000
Cu 43.200000 39.600000 3.600000
Cu 43.200000 41.400000 5.400000
Cu 45.000000 39.600000 5.400000
Cu 45.000000 41.400000 3.600000
Cu 43.200000 43.200000 0.000000
Cu 43.200000 45.000000 1.800000
Cu 45.000000 43.200000 1.800000
Cu 45.000000 45.000000 0.000000
Cu 43.200000 43.200000 3.600000
Cu 43.200000 45.000000 5.400000
Cu 45.000000 43.200000 5.400000
Cu 45.000000 45.000000 3.600000
Cu 43.200000 46.800000 0.000000
Cu 43.200000 48.600000 1.800000
Cu 45.000000 46.800000 1.800000
Cu 45.000000 48.600000 0.000000
Cu 43.200000 46.800000 3.600000
Cu 43.200000 48.600000 5.400000
Cu 45.000000 46.800000 5.400000
Cu 45.000000 48.600000 3.600000
Cu 43.200000 50.400000 0.000000
Cu 43.200000 52.200000 1.800000
Cu 45.000000 50.400000 1.800000
Cu 45.000000 52.200000 0.000000
Cu 43.200000 50.400000 3.600000
Cu 43.200000 52.200000 5.400000
Cu 45.000000 50.400000 5.400000
Cu 45.000000 52.200000 3.600000
Cu 43.200000 54.000000 0.000000
Cu 43.200000 55.800000 1.800000
Cu 45.000000 54.000000 1.800000
Cu 45.000000 55.800000 0.000000
Cu 43.200000 54.000000 3.600000
Cu 43.200000 55.800000 5.400000
Cu 45.000000 54.000000 5.400000
Cu 45.000000 55.800000 3.600000
Cu 46.800000 0.000000 0.000000
Cu 46.800000 1.800000 1.800000
Cu 48.600000 0.000000 1.800000
Cu 48.600000 1.800000 0.000000
Cu 46.800000 0.000000 3.600000
Cu 46.800000 1.800000 5.400000
Cu 48.600000 0.000000 5.400000
Cu 48.600000 1.800000 3.600000
Cu 46.800000 3.600000 0.000000
Cu 46.800000 5.400000 1.800000
Cu 48.600000 3.600000 1.800000
Cu 48.600000 5.400000 0.000000
Cu 46.800000 3.600000 3.600000
Cu 46.800000 5.400000 5.400000
Cu 48.600000 3.600000 5.400000
Cu 48.600000 5.400000 3.600000
Cu 46.800000 7.200000 0.000000
Cu 46.800000 9.000000 1.800000
Cu 48.600000 7.200000 1.800000
Cu 48.600000 9.000000 0.000000
Cu 46.800000 7.200000 3.600000
Cu 46.800000 9.000000 5.400000
Cu 48.600000 7.200000 5.400000
Cu 48.600000 9.000000 3.600000
Cu 46.800000 10.800000 0.000000
Cu 46.800000 12.600000 1.800000
Cu 48.600000 10.800000 1.800000
Cu 48.600000 12.600000 0.000000
Cu 46.800000 10.800000 3.600000
Cu 46.800000 12.600000 5.400000
Cu 48.600000 10.800000 5.400000
Cu 48.600000 12.600000 3.600000
Cu 46.800000 14.400000 0.000000
Cu 46.800000 16.200000 1.800000
Cu 48.600000 14.400000 1.800000
Cu 48.600000 16.200000 0.000000
Cu 46.800000 14.400000 3.600000
Cu 46.800000 16.200000 5.400000
Cu 48.600000 14.400000 5.400000
Cu 48.600000 16.200000 3.600000
Cu 46.800000 18.000000 0.000000
Cu 46.800000 19.800000 1.800000
Cu 48.600000 18.000000 1.800000
Cu 48.600000 19.800000 0.000000
Cu 46.800000 18.000000 3.600000
Cu 46.800000 19.800000 5.400000
Cu 48.600000 18.000000 5.400000
Cu 48.600000 19.800000 3.600000
Cu 46.800000 21.600000 0.000000
Cu 46.800000 23.400000 1.800000
Cu 48.600000 21.600000 1.800000
Cu 48.600000 23.400000 0.000000
Cu 46.800000 21.600000 3.600000
Cu 46.800000 23.400000 5.400000
Cu 48.600000 21.600000 5.400000
Cu 48.600000 23.400000 3.600000
Cu 46.800000 25.200000 0.000000
Cu 46.800000 27.000000 1.800000
Cu 48.600000 25.200000 1.800000
Cu 48.600000 27.000000 0.000000
Cu 46.800000 25.200000 3.600000
Cu 46.800000 27.000000 5.400000
Cu 48.600000 25.200000 5.400000
Cu 48.600000 27.000000 3.600000
Cu 46.800000 28.800000 0.000000
Cu 46.800000 30.600000 1.800000
Cu 48.600000 28.800000 1.800000
Cu 48.600000 30.600000 0.000000
Cu 46.800000 28.800000 3.600000
Cu 46.800000 30.600000 5.400000
Cu 48.600000 28.800000 5.400000
Cu 48.600000 30.600000 3.600000
Cu 46.800000 32.400000 0.000000
Cu 46.800000 34.200000 1.800000
Cu 48.600000 32.400000 1.800000
Cu 48.600000 34.200000 0.000000
Cu 46.800000 32.400000 3.600000
Cu 46.800000 34.200000 5.400000
Cu 48.600000 32.400000 5.400000
Cu 48.600000 34.200000 3.600000
Cu 46.800000 36.000000 0.000000
Cu 46.800000 37.800000 1.800000
Cu 48.600000 36.000000 1.800000
Cu 48.600000 37.800000 0.000000
Cu 46.800000 36.000000 3.600000
Cu 46.800000 37.800000 5.400000
Cu 48.600000 36.000000 5.400000
Cu 48.600000 37.800000 3.600000
Cu 46.800000 39.600000 0.000000
Cu 46.800000 41.400000 1.800000
Cu 48.600000 39.600000 1.800000
Cu 48.600000 41.400000 0.000000
Cu 46.800000 39.600000 3.600000
Cu 46.800000 41.400000 5.400000
Cu 48.600000 39.600000 5.400000
Cu 48.600000 41.400000 3.600000
Cu 46.800000 43.200000 0.000000
Cu 46.800000 45.000000 1.800000
Cu 48.600000 43.200000 1.800000
Cu 48.600000 45.000000 0.000000
Cu 46.800000 43.200000 3.600000
Cu 46.800000 45.000000 5.400000
Cu 48.600000 43.200000 5.400000
Cu 48.600000 45.000000 3.600000
Cu 46.800000 46.800000 0.000000
Cu 46.800000 48.600000 1.800000
Cu 48.600000 46.800000 1.800000
Cu 48.600000 48.600000 0.000000
Cu 46.800000 46.800000 3.600000
Cu 46.800000 48.600000 5.400000
Cu 48.600000 46.800000 5.400000
Cu 48.600000 48.600000 3.600000
Cu 46.800000 50.400000 0.000000
Cu 46.800000 52.200000 1.800000
Cu 48.600000 50.400000 1.800000
Cu 48.600000 52.200000 0.000000
Cu 46.800000 50.400000 3.600000
Cu 46.800000 52.200000 5.400000
Cu 48.600000 50.400000 5.400000
Cu 48.600000 52.200000 3.600000
Cu 46.800000 54.000000 0.000000
Cu 46.800000 55.800000 1.800000
Cu 48.600000 54.000000 1.800000
Cu 48.600000 55.800000 0.000000
Cu 46.800000 54.000000 3.600000
Cu 46.800000 55.800000 5.400000
Cu 48.600000 54.000000 5.400000
Cu 48.600000 55.800000 3.600000
Cu 50.400000 0.000000 0.000000
Cu 50.400000 1.800000 1.800000
Cu 52.200000 0.000000 1.800000
Cu 52.200000 1.800000 0.000000
Cu 50.400000 0.000000 3.600000
Cu 50.400000 1.800000 5.400000
Cu 52.200000 0.000000 5.400000
Cu 52.200000 1.800000 3.600000
Cu 50.400000 3.600000 0.000000
Cu 50.400000 5.400000 1.800000
Cu 52.200000 3.600000 1.800000
Cu 52.200000 5.400000 0.000000
Cu 50.400000 3.600000 3.600000
Cu 50.400000 5.400000 5.400000
Cu 52.200000 3.600000 5.400000
Cu 52.200000 5.400000 3.600000
Cu 50.400000 7.200000 0.000000
Cu 50.400000 9.000000 1.800000
Cu 52.200000 7.200000 1.800000
Cu 52.200000 9.000000 0.000000
Cu 50.400000 7.200000 3.600000
Cu 50.400000 9.000000 5.400000
Cu 52.200000 7.200000 5.400000
Cu 52.200000 9.000000 3.600000
Cu 50.400000 10.800000 0.000000
Cu 50.400000 12.600000 1.800000
Cu 52.200000 10.800000 1.800000
Cu 52.200000 12.600000 0.000000
Cu 50.400000 10.800000 3.600000
Cu 50.400000 12.600000 5.400000
Cu 52.200000 10.800000 5.400000
Cu 52.200000 12.600000 3.600000
Cu 50.400000 14.400000 0.000000
Cu 50.400000 16.200000 1.800000
Cu 52.200000 14.400000 1.800000
Cu 52.200000 16.200000 0.000000
Cu 50.400000 14.400000 3.600000
Cu 50.400000 16.200000 5.400000
Cu 52.200000 14.400000 5.400000
Cu 52.200000 16.200000 3.600000
Cu 50.400000 18.000000 0.000000
Cu 50.400000 19.800000 1.800000
Cu 52.200000 18.000000 1.800000
Cu 52.200000 19.800000 0.000000
Cu 50.400000 18.000000 3.600000
Cu 50.400000 19.800000 5.400000
Cu 52.200000 18.000000 5.400000
Cu 52.200000 19.800000 3.600000
Cu 50.400000 21.600000 0.000000
Cu 50.400000 23.400000 1.800000
Cu 52.200000 21.600000 1.800000
Cu 52.200000 23.400000 0.000000
Cu 50.400000 21.600000 3.600000
Cu 50.400000 23.400000 5.400000
Cu 52.200000 21.600000 5.400000
Cu 52.200000 23.400000 3.600000
Cu 50.400000 25.200000 0.000000
Cu 50.400000 27.000000 1.800000
Cu 52.200000 25.200000 1.800000
Cu 52.200000 27.000000 0.000000
Cu 50.400000 25.200000 3.600000
Cu 50.400000 27.000000 5.400000
Cu 52.200000 25.200000 5.400000
Cu 52.200000 27.000000 3.600000
Cu 50.400000 28.800000 0.000000
Cu 50.400000 30.600000 1.800000
Cu 52.200000 28.800000 1.800000
Cu 52.200000 30.600000 0.000000
Cu 50.400000 28.800000 3.600000
Cu 50.400000 30.600000 5.400000
Cu 52.200000 28.800000 5.400000
Cu 52.200000 30.600000 3.600000
Cu 50.400000 32.400000 0.000000
Cu 50.400000 34.200000 1.800000
Cu 52.200000 32.400000 1.800000
Cu 52.200000 34.200000 0.000000
Cu 50.400000 32.400000 3.600000
Cu 50.400000 34.200000 5.400000
Cu 52.200000 32.400000 5.400000
Cu 52.200000 34.200000 3.600000
Cu 50.400000 36.000000 0.000000
Cu 50.400000 37.800000 1.800000
Cu 52.200000 36.000000 1.800000
Cu 52.200000 37.800000 0.000000
Cu 50.400000 36.000000 3.600000
Cu 50.400000 37.800000 5.400000
Cu 52.200000 36.000000 5.400000
Cu 52.200000 37.800000 3.600000
Cu 50.400000 39.600000 0.000000
Cu 50.400000 41.400000 1.800000
Cu 52.200000 39.600000 1.800000
Cu 52.200000 41.400000 0.000000
Cu 50.400000 39.600000 3.600000
Cu 50.400000 41.400000 5.400000
Cu 52.200000 39.600000 5.400000
Cu 52.200000 41.400000 3.600000
Cu 50.400000 43.200000 0.000000
Cu 50.400000 45.000000 1.800000
Cu 52.200000 43.200000 1.800000
Cu 52.200000 45.000000 0.000000
Cu 50.400000 43.200000 3.600000
Cu 50.400000 45.000000 5.400000
Cu 52.200000 43.200000 5.400000
Cu 52.200000 45.000000 3.600000
Cu 50.400000 46.800000 0.000000
Cu 50.400000 48.600000 1.800000
Cu 52.200000 46.800000 1.800000
Cu 52.200000 48.600000 0.000000
Cu 50.400000 46.800000 3.600000
Cu 50.400000 48.600000 5.400000
Cu 52.200000 46.800000 5.400000
Cu 52.200000 48.600000 3.600000
Cu 50.400000 50.400000 0.000000
Cu 50.400000 52.200000 1.800000
Cu 52.200000 50.400000 1.800000
Cu 52.200000 52.200000 0.000000
Cu 50.400000 50.400000 3.600000
Cu 50.400000 52.200000 5.400000
Cu 52.200000 50.400000 5.400000
Cu 52.200000 52.200000 3.600000
Cu 50.400000 54.000000 0.000000
Cu 50.400000 55.800000 1.800000
Cu 52.200000 54.000000 1.800000
Cu 52.200000 55.800000 0.000000
Cu 50.400000 54.000000 3.600000
Cu 50.400000 55.800000 5.400000
Cu 52.200000 54.000000 5.400000
Cu 52.200000 55.800000 3.600000
Cu 54.000000 0.000000 0.000000
Cu 54.000000 1.800000 1.800000
Cu 55.800000 0.000000 1.800000
Cu 55.800000 1.800000 0.000000
Cu 54.000000 0.000000 3.600000
Cu 54.000000 1.800000 5.400000
Cu 55.800000 0.000000 5.400000
Cu 55.800000 1.800000 3.600000
Cu 54.000000 3.600000 0.000000
Cu 54.000000 5.400000 1.800000
Cu 55.800000 3.600000 1.800000
Cu 55.800000 5.400000 0.000000
Cu 54.000000 3.600000 3.600000
Cu 54.000000 5.400000 5.400000
Cu 55.800000 3.600000 5.400000
Cu 55.800000 5.400000 3.600000
Cu 54.000000 7.200000 0.000000
Cu 54.000000 9.000000 1.800000
Cu 55.800000 7.200000 1.800000
Cu 55.800000 9.000000 0.000000
Cu 54.000000 7.200000 3.600000
Cu 54.000000 9.000000 5.400000
Cu 55.800000 7.200000 5.400000
Cu 55.800000 9.000000 3.600000
Cu 54.000000 10.800000 0.000000
Cu 54.000000 12.600000 1.800000
Cu 55.800000 10.800000 1.800000
Cu 55.800000 12.600000 0.000000
Cu 54.000000 10.800000 3.600000
Cu 54.000000 12.600000 5.400000
Cu 55.800000 10.800000 5.400000
Cu 55.800000 12.600000 3.600000
Cu 54.000000 14.400000 0.000000
Cu 54.000000 16.200000 1.800000
Cu 55.800000 14.400000 1.800000
Cu 55.800000 16.200000 0.000000
Cu 54.000000 14.400000 3.600000
Cu 54.000000 16.200000 5.400000
Cu 55.800000 14.400000 5.400000
Cu 55.800000 16.200000 3.600000
Cu 54.000000 18.000000 0.000000
Cu 54.000000 19.800000 1.800000
Cu 55.800000 18.000000 1.800000
Cu 55.800000 19.800000 0.000000
Cu 54.000000 18.000000 3.600000
Cu 54.000000 19.800000 5.400000
Cu 55.800000 18.000000 5.400000
Cu 55.800000 19.800000 3.600000
Cu 54.000000 21.600000 0.000000
Cu 54.000000 23.400000 1.800000
Cu 55.800000 21.600000 1.800000
Cu 55.800000 23.400000 0.000000
Cu 54.000000 21.600000 3.600000
Cu 54.000000 23.400000 5.400000
Cu 55.800000 21.600000 5.400000
Cu 55.800000 23.400000 3.600000
Cu 54.000000 25.200000 0.000000
Cu 54.000000 27.000000 1.800000
Cu 55.800000 25.200000 1.800000
Cu 55.800000 27.000000 0.000000
Cu 54.000000 25.200000 3.600000
Cu 54.000000 27.000000 5.400000
Cu 55.800000 25.200000 5.400000
Cu 55.800000 27.000000 3.600000
Cu 54.000000 28.800000 0.000000
Cu 54.000000 30.600000 1.800000
Cu 55.800000 28.800000 1.800000
Cu 55.800000 30.600000 0.000000
Cu 54.000000 28.800000 3.600000
Cu 54.000000 30.600000 5.400000
Cu 55.800000 28.800000 5.400000
Cu 55.800000 30.600000 3.600000
Cu 54.000000 32.400000 0.000000
Cu 54.000000 34.200000 1.800000
Cu 55.800000 32.400000 1.800000
Cu 55.800000 34.200000 0.000000
Cu 54.000000 32.400000 3.600000
Cu 54.000000 34.200000 5.400000
Cu 55.800000 32.400000 5.400000
Cu 55.800000 34.200000 3.600000
Cu 54.000000 36.000000 0.000000
Cu 54.000000 37.800000 1.800000
Cu 55.800000 36.000000 1.800000
Cu 55.800000 37.800000 0.000000
Cu 54.000000 36.000000 3.600000
Cu 54.000000 37.800000 5.400000
Cu 55.800000 36.000000 5.400000
Cu 55.800000 37.800000 3.600000
Cu 54.000000 39.600000 0.000000
Cu 54.000000 41.400000 1.800000
Cu 55.800000 39.600000 1.800000
Cu 55.800000 41.400000 0.000000
Cu 54.000000 39.600000 3.600000
Cu 54.000000 41.400000 5.400000
Cu 55.800000 39.600000 5.400000
Cu 55.800000 41.400000 3.600000
Cu 54.000000 43.200000 0.000000
Cu 54.000000 45.000000 1.800000
Cu 55.800000 43.200000 1.800000
Cu 55.800000 45.000000 0.000000
Cu 54.000000 43.200000 3.600000
Cu 54.000000 45.000000 5.400000
Cu 55.800000 43.200000 5.400000
Cu 55.800000 45.000000 3.600000
Cu 54.000000 46.800000 0.000000
Cu 54.000000 48.600000 1.800000
Cu 55.800000 46.800000 1.800000
Cu 55.800000 48.600000 0.000000
Cu 54.000000 46.800000 3.600000
Cu 54.000000 48.600000 5.400000
Cu 55.800000 46.800000 5.400000
Cu 55.800000 48.600000 3.600000
Cu 54.000000 50.400000 0.000000
Cu 54.000000 52.200000 1.800000
Cu 55.800000 50.400000 1.800000
Cu 55.800000 52.200000 0.000000
Cu 54.000000 50.400000 3.600000
Cu 54.000000 52.200000 5.400000
Cu 55.800000 50.400000 5.400000
Cu 55.800000 52.200000 3.600000
Cu 54.000000 54.000000 0.000000
Cu 54.000000 55.800000 1.800000
Cu 55.800000 54.000000 1.800000
Cu 55.800000 55.800000 0.000000
Cu 54.000000 54.000000 3.600000
Cu 54.000000 55.800000 5.400000
Cu 55.800000 54.000000 5.400000
Cu 55.800000 55.800000 3.600000
