1568
Properties=species:S:1:pos:R:3
C 0.000000 0.000000 -0.500000
C 1.230000 0.710141 -0.500000
C -1.230000 2.130422 -0.500000
C 0.000000 2.840563 -0.500000
C -2.460000 4.260845 -0.500000
C -1.230000 4.970986 -0.500000
C -3.690000 6.391267 -0.500000
C -2.460000 7.101408 -0.500000
C -4.920000 8.521690 -0.500000
C -3.690000 9.231831 -0.500000
C -6.150000 10.652112 -0.500000
C -4.920000 11.362253 -0.500000
C -7.380000 12.782535 -0.500000
C -6.150000 13.492676 -0.500000
C -8.610000 14.912957 -0.500000
C -7.380000 15.623098 -0.500000
C -9.840000 17.043380 -0.500000
C -8.610000 17.753521 -0.500000
C -11.070000 19.173802 -0.500000
C -9.840000 19.883943 -0.500000
C -12.300000 21.304225 -0.500000
C -11.070000 22.014366 -0.500000
C -13.530000 23.434647 -0.500000
C -12.300000 24.144788 -0.500000
C -14.760000 25.565070 -0.500000
C -13.530000 26.275211 -0.500000
C -15.990000 27.695492 -0.500000
C -14.760000 28.405633 -0.500000
C -17.220000 29.825915 -0.500000
C -15.990000 30.536056 -0.500000
C -18.450000 31.956337 -0.500000
C -17.220000 32.666478 -0.500000
C -19.680000 34.086760 -0.500000
C -18.450000 34.796901 -0.500000
C -20.910000 36.217182 -0.500000
C -19.680000 36.927323 -0.500000
C -22.140000 38.347605 -0.500000
C -20.910000 39.057746 -0.500000
C -23.370000 40.478027 -0.500000
C -22.140000 41.188168 -0.500000
C -24.600000 42.608450 -0.500000
C -23.370000 43.318591 -0.500000
C -25.830000 44.738872 -0.500000
C -24.600000 45.449013 -0.500000
C -27.060000 46.869295 -0.500000
C -25.830000 47.579436 -0.500000
C -28.290000 48.999717 -0.500000
C -27.060000 49.709858 -0.500000
C -29.520000 51.130140 -0.500000
C -28.290000 51.840281 -0.500000
C -30.750000 53.260562 -0.500000
C -29.520000 53.970703 -0.500000
C -31.980000 55.390985 -0.500000
C -30.750000 56.101126 -0.500000
C -33.210000 57.521407 -0.500000
C -31.980000 58.231548 -0.500000
C 2.460000 0.000000 -0.500000
C 3.690000 0.710141 -0.500000
C 1.230000 2.130422 -0.500000
C 2.460000 2.840563 -0.500000
C 0.000000 4.260845 -0.500000
C 1.230000 4.970986 -0.500000
C -1.230000 6.391267 -0.500000
C 0.000000 7.101408 -0.500000
C -2.460000 8.521690 -0.500000
C -1.230000 9.231831 -0.500000
C -3.690000 10.652112 -0.500000
C -2.460000 11.362253 -0.500000
C -4.920000 12.782535 -0.500000
C -3.690000 13.492676 -0.500000
C -6.150000 14.912957 -0.500000
C -4.920000 15.623098 -0.500000
C -7.380000 17.043380 -0.500000
C -6.150000 17.753521 -0.500000
C -8.610000 19.173802 -0.500000
C -7.380000 19.883943 -0.500000
C -9.840000 21.304225 -0.500000
C -8.610000 22.014366 -0.500000
C -11.070000 23.434647 -0.500000
C -9.840000 24.144788 -0.500000
C -12.300000 25.565070 -0.500000
C -11.070000 26.275211 -0.500000
C -13.530000 27.695492 -0.500000
C -12.300000 28.405633 -0.500000
C -14.760000 29.825915 -0.500000
C -13.530000 30.536056 -0.500000
C -15.990000 31.956337 -0.500000
C -14.760000 32.666478 -0.500000
C -17.220000 34.086760 -0.500000
C -15.990000 34.796901 -0.500000
C -18.450000 36.217182 -0.500000
C -17.220000 36.927323 -0.500000
C -19.680000 38.347605 -0.500000
C -18.450000 39.057746 -0.500000
C -20.910000 40.478027 -0.500000
C -19.680000 41.188168 -0.500000
C -22.140000 42.608450 -0.500000
C -20.910000 43.318591 -0.500000
C -23.370000 44.738872 -0.500000
C -22.140000 45.449013 -0.500000
C -24.600000 46.869295 -0.500000
C -23.370000 47.579436 -0.500000
C -25.830000 48.999717 -0.500000
C -24.600000 49.709858 -0.500000
C -27.060000 51.130140 -0.500000
C -25.830000 51.840281 -0.500000
C -28.290000 53.260562 -0.500000
C -27.060000 53.970703 -0.500000
C -29.520000 55.390985 -0.500000
C -28.290000 56.101126 -0.500000
C -30.750000 57.521407 -0.500000
C -29.520000 58.231548 -0.500000
C 4.920000 0.000000 -0.500000
C 6.150000 0.710141 -0.500000
C 3.690000 2.130422 -0.500000
C 4.920000 2.840563 -0.500000
C 2.460000 4.260845 -0.500000
C 3.690000 4.970986 -0.500000
C 1.230000 6.391267 -0.500000
C 2.460000 7.101408 -0.500000
C 0.000000 8.521690 -0.500000
C 1.230000 9.231831 -0.500000
C -1.230000 10.652112 -0.500000
C 0.000000 11.362253 -0.500000
C -2.460000 12.782535 -0.500000
C -1.230000 13.492676 -0.500000
C -3.690000 14.912957 -0.500000
C -2.460000 15.623098 -0.500000
C -4.920000 17.043380 -0.500000
C -3.690000 17.753521 -0.500000
C -6.150000 19.173802 -0.500000
C -4.920000 19.883943 -0.500000
C -7.380000 21.304225 -0.500000
C -6.150000 22.014366 -0.500000
C -8.610000 23.434647 -0.500000
C -7.380000 24.144788 -0.500000
C -9.840000 25.565070 -0.500000
C -8.610000 26.275211 -0.500000
C -11.070000 27.695492 -0.500000
C -9.840000 28.405633 -0.500000
C -12.300000 29.825915 -0.500000
C -11.070000 30.536056 -0.500000
C -13.530000 31.956337 -0.500000
C -12.300000 32.666478 -0.500000
C -14.760000 34.086760 -0.500000
C -13.530000 34.796901 -0.500000
C -15.990000 36.217182 -0.500000
C -14.760000 36.927323 -0.500000
C -17.220000 38.347605 -0.500000
C -15.990000 39.057746 -0.500000
C -18.450000 40.478027 -0.500000
C -17.220000 41.188168 -0.500000
C -19.680000 42.608450 -0.500000
C -18.450000 43.318591 -0.500000
C -20.910000 44.738872 -0.500000
C -19.680000 45.449013 -0.500000
C -22.140000 46.869295 -0.500000
C -20.910000 47.579436 -0.500000
C -23.370000 48.999717 -0.500000
C -22.140000 49.709858 -0.500000
C -24.600000 51.130140 -0.500000
C -23.370000 51.840281 -0.500000
C -25.830000 53.260562 -0.500000
C -24.600000 53.970703 -0.500000
C -27.060000 55.390985 -0.500000
C -25.830000 56.101126 -0.500000
C -28.290000 57.521407 -0.500000
C -27.060000 58.231548 -0.500000
C 7.380000 0.000000 -0.500000
C 8.610000 0.710141 -0.500000
C 6.150000 2.130422 -0.500000
C 7.380000 2.840563 -0.500000
C 4.920000 4.260845 -0.500000
C 6.150000 4.970986 -0.500000
C 3.690000 6.391267 -0.500000
C 4.920000 7.101408 -0.500000
C 2.460000 8.521690 -0.500000
C 3.690000 9.231831 -0.500000
C 1.230000 10.652112 -0.500000
C 2.460000 11.362253 -0.500000
C 0.000000 12.782535 -0.500000
C 1.230000 13.492676 -0.500000
C -1.230000 14.912957 -0.500000
C 0.000000 15.623098 -0.500000
C -2.460000 17.043380 -0.500000
C -1.230000 17.753521 -0.500000
C -3.690000 19.173802 -0.500000
C -2.460000 19.883943 -0.500000
C -4.920000 21.304225 -0.500000
C -3.690000 22.014366 -0.500000
C -6.150000 23.434647 -0.500000
C -4.920000 24.144788 -0.500000
C -7.380000 25.565070 -0.500000
C -6.150000 26.275211 -0.500000
C -8.610000 27.695492 -0.500000
C -7.380000 28.405633 -0.500000
C -9.840000 29.825915 -0.500000
C -8.610000 30.536056 -0.500000
C -11.070000 31.956337 -0.500000
C -9.840000 32.666478 -0.500000
C -12.300000 34.086760 -0.500000
C -11.070000 34.796901 -0.500000
C -13.530000 36.217182 -0.500000
C -12.300000 36.927323 -0.500000
C -14.760000 38.347605 -0.500000
C -13.530000 39.057746 -0.500000
C -15.990000 40.478027 -0.500000
C -14.760000 41.188168 -0.500000
C -17.220000 42.608450 -0.500000
C -15.990000 43.318591 -0.500000
C -18.450000 44.738872 -0.500000
C -17.220000 45.449013 -0.500000
C -19.680000 46.869295 -0.500000
C -18.450000 47.579436 -0.500000
C -20.910000 48.999717 -0.500000
C -19.680000 49.709858 -0.500000
C -22.140000 51.130140 -0.500000
C -20.910000 51.840281 -0.500000
C -23.370000 53.260562 -0.500000
C -22.140000 53.970703 -0.500000
C -24.600000 55.390985 -0.500000
C -23.370000 56.101126 -0.500000
C -25.830000 57.521407 -0.500000
C -24.600000 58.231548 -0.500000
C 9.840000 0.000000 -0.500000
C 11.070000 0.710141 -0.500000
C 8.610000 2.130422 -0.500000
C 9.840000 2.840563 -0.500000
C 7.380000 4.260845 -0.500000
C 8.610000 4.970986 -0.500000
C 6.150000 6.391267 -0.500000
C 7.380000 7.101408 -0.500000
C 4.920000 8.521690 -0.500000
C 6.150000 9.231831 -0.500000
C 3.690000 10.652112 -0.500000
C 4.920000 11.362253 -0.500000
C 2.460000 12.782535 -0.500000
C 3.690000 13.492676 -0.500000
C 1.230000 14.912957 -0.500000
C 2.460000 15.623098 -0.500000
C 0.000000 17.043380 -0.500000
C 1.230000 17.753521 -0.500000
C -1.230000 19.173802 -0.500000
C 0.000000 19.883943 -0.500000
C -2.460000 21.304225 -0.500000
C -1.230000 22.014366 -0.500000
C -3.690000 23.434647 -0.500000
C -2.460000 24.144788 -0.500000
C -4.920000 25.565070 -0.500000
C -3.690000 26.275211 -0.500000
C -6.150000 27.695492 -0.500000
C -4.920000 28.405633 -0.500000
C -7.380000 29.825915 -0.500000
C -6.150000 30.536056 -0.500000
C -8.610000 31.956337 -0.500000
C -7.380000 32.666478 -0.500000
C -9.840000 34.086760 -0.500000
C -8.610000 34.796901 -0.500000
C -11.070000 36.217182 -0.500000
C -9.840000 36.927323 -0.500000
C -12.300000 38.347605 -0.500000
C -11.070000 39.057746 -0.500000
C -13.530000 40.478027 -0.500000
C -12.300000 41.188168 -0.500000
C -14.760000 42.608450 -0.500000
C -13.530000 43.318591 -0.500000
C -15.990000 44.738872 -0.500000
C -14.760000 45.449013 -0.500000
C -17.220000 46.869295 -0.500000
C -15.990000 47.579436 -0.500000
C -18.450000 48.999717 -0.500000
C -17.220000 49.709858 -0.500000
C -19.680000 51.130140 -0.500000
C -18.450000 51.840281 -0.500000
C -20.910000 53.260562 -0.500000
C -19.680000 53.970703 -0.500000
C -22.140000 55.390985 -0.500000
C -20.910000 56.101126 -0.500000
C -23.370000 57.521407 -0.500000
C -22.140000 58.231548 -0.500000
C 12.300000 0.000000 -0.500000
C 13.530000 0.710141 -0.500000
C 11.070000 2.130422 -0.500000
C 12.300000 2.840563 -0.500000
C 9.840000 4.260845 -0.500000
C 11.070000 4.970986 -0.500000
C 8.610000 6.391267 -0.500000
C 9.840000 7.101408 -0.500000
C 7.380000 8.521690 -0.500000
C 8.610000 9.231831 -0.500000
C 6.150000 10.652112 -0.500000
C 7.380000 11.362253 -0.500000
C 4.920000 12.782535 -0.500000
C 6.150000 13.492676 -0.500000
C 3.690000 14.912957 -0.500000
C 4.920000 15.623098 -0.500000
C 2.460000 17.043380 -0.500000
C 3.690000 17.753521 -0.500000
C 1.230000 19.173802 -0.500000
C 2.460000 19.883943 -0.500000
C 0.000000 21.304225 -0.500000
C 1.230000 22.014366 -0.500000
C -1.230000 23.434647 -0.500000
C 0.000000 24.144788 -0.500000
C -2.460000 25.565070 -0.500000
C -1.230000 26.275211 -0.500000
C -3.690000 27.695492 -0.500000
C -2.460000 28.405633 -0.500000
C -4.920000 29.825915 -0.500000
C -3.690000 30.536056 -0.500000
C -6.150000 31.956337 -0.500000
C -4.920000 32.666478 -0.500000
C -7.380000 34.086760 -0.500000
C -6.150000 34.796901 -0.500000
C -8.610000 36.217182 -0.500000
C -7.380000 36.927323 -0.500000
C -9.840000 38.347605 -0.500000
C -8.610000 39.057746 -0.500000
C -11.070000 40.478027 -0.500000
C -9.840000 41.188168 -0.500000
C -12.300000 42.608450 -0.500000
C -11.070000 43.318591 -0.500000
C -13.530000 44.738872 -0.500000
C -12.300000 45.449013 -0.500000
C -14.760000 46.869295 -0.500000
C -13.530000 47.579436 -0.500000
C -15.990000 48.999717 -0.500000
C -14.760000 49.709858 -0.500000
C -17.220000 51.130140 -0.500000
C -15.990000 51.840281 -0.500000
C -18.450000 53.260562 -0.500000
C -17.220000 53.970703 -0.500000
C -19.680000 55.390985 -0.500000
C -18.450000 56.101126 -0.500000
C -20.910000 57.521407 -0.500000
C -19.680000 58.231548 -0.500000
C 14.760000 0.000000 -0.500000
C 15.990000 0.710141 -0.500000
C 13.530000 2.130422 -0.500000
C 14.760000 2.840563 -0.500000
C 12.300000 4.260845 -0.500000
C 13.530000 4.970986 -0.500000
C 11.070000 6.391267 -0.500000
C 12.300000 7.101408 -0.500000
C 9.840000 8.521690 -0.500000
C 11.070000 9.231831 -0.500000
C 8.610000 10.652112 -0.500000
C 9.840000 11.362253 -0.500000
C 7.380000 12.782535 -0.500000
C 8.610000 13.492676 -0.500000
C 6.150000 14.912957 -0.500000
C 7.380000 15.623098 -0.500000
C 4.920000 17.043380 -0.500000
C 6.150000 17.753521 -0.500000
C 3.690000 19.173802 -0.500000
C 4.920000 19.883943 -0.500000
C 2.460000 21.304225 -0.500000
C 3.690000 22.014366 -0.500000
C 1.230000 23.434647 -0.500000
C 2.460000 24.144788 -0.500000
C 0.000000 25.565070 -0.500000
C 1.230000 26.275211 -0.500000
C -1.230000 27.695492 -0.500000
C 0.000000 28.405633 -0.500000
C -2.460000 29.825915 -0.500000
C -1.230000 30.536056 -0.500000
C -3.690000 31.956337 -0.500000
C -2.460000 32.666478 -0.500000
C -4.920000 34.086760 -0.500000
C -3.690000 34.796901 -0.500000
C -6.150000 36.217182 -0.500000
C -4.920000 36.927323 -0.500000
C -7.380000 38.347605 -0.500000
C -6.150000 39.057746 -0.500000
C -8.610000 40.478027 -0.500000
C -7.380000 41.188168 -0.500000
C -9.840000 42.608450 -0.500000
C -8.610000 43.318591 -0.500000
C -11.070000 44.738872 -0.500000
C -9.840000 45.449013 -0.500000
C -12.300000 46.869295 -0.500000
C -11.070000 47.579436 -0.500000
C -13.530000 48.999717 -0.500000
C -12.300000 49.709858 -0.500000
C -14.760000 51.130140 -0.500000
C -13.530000 51.840281 -0.500000
C -15.990000 53.260562 -0.500000
C -14.760000 53.970703 -0.500000
C -17.220000 55.390985 -0.500000
C -15.990000 56.101126 -0.500000
C -18.450000 57.521407 -0.500000
C -17.220000 58.231548 -0.500000
C 17.220000 0.000000 -0.500000
C 18.450000 0.710141 -0.500000
C 15.990000 2.130422 -0.500000
C 17.220000 2.840563 -0.500000
C 14.760000 4.260845 -0.500000
C 15.990000 4.970986 -0.500000
C 13.530000 6.391267 -0.500000
C 14.760000 7.101408 -0.500000
C 12.300000 8.521690 -0.500000
C 13.530000 9.231831 -0.500000
C 11.070000 10.652112 -0.500000
C 12.300000 11.362253 -0.500000
C 9.840000 12.782535 -0.500000
C 11.070000 13.492676 -0.500000
C 8.610000 14.912957 -0.500000
C 9.840000 15.623098 -0.500000
C 7.380000 17.043380 -0.500000
C 8.610000 17.753521 -0.500000
C 6.150000 19.173802 -0.500000
C 7.380000 19.883943 -0.500000
C 4.920000 21.304225 -0.500000
C 6.150000 22.014366 -0.500000
C 3.690000 23.434647 -0.500000
C 4.920000 24.144788 -0.500000
C 2.460000 25.565070 -0.500000
C 3.690000 26.275211 -0.500000
C 1.230000 27.695492 -0.500000
C 2.460000 28.405633 -0.500000
C -0.000000 29.825915 -0.500000
C 1.230000 30.536056 -0.500000
C -1.230000 31.956337 -0.500000
C -0.000000 32.666478 -0.500000
C -2.460000 34.086760 -0.500000
C -1.230000 34.796901 -0.500000
C -3.690000 36.217182 -0.500000
C -2.460000 36.927323 -0.500000
C -4.920000 38.347605 -0.500000
C -3.690000 39.057746 -0.500000
C -6.150000 40.478027 -0.500000
C -4.920000 41.188168 -0.500000
C -7.380000 42.608450 -0.500000
C -6.150000 43.318591 -0.500000
C -8.610000 44.738872 -0.500000
C -7.380000 45.449013 -0.500000
C -9.840000 46.869295 -0.500000
C -8.610000 47.579436 -0.500000
C -11.070000 48.999717 -0.500000
C -9.840000 49.709858 -0.500000
C -12.300000 51.130140 -0.500000
C -11.070000 51.840281 -0.500000
C -13.530000 53.260562 -0.500000
C -12.300000 53.970703 -0.500000
C -14.760000 55.390985 -0.500000
C -13.530000 56.101126 -0.500000
C -15.990000 57.521407 -0.500000
C -14.760000 58.231548 -0.500000
C 19.680000 0.000000 -0.500000
C 20.910000 0.710141 -0.500000
C 18.450000 2.130422 -0.500000
C 19.680000 2.840563 -0.500000
C 17.220000 4.260845 -0.500000
C 18.450000 4.970986 -0.500000
C 15.990000 6.391267 -0.500000
C 17.220000 7.101408 -0.500000
C 14.760000 8.521690 -0.500000
C 15.990000 9.231831 -0.500000
C 13.530000 10.652112 -0.500000
C 14.760000 11.362253 -0.500000
C 12.300000 12.782535 -0.500000
C 13.530000 13.492676 -0.500000
C 11.070000 14.912957 -0.500000
C 12.300000 15.623098 -0.500000
C 9.840000 17.043380 -0.500000
C 11.070000 17.753521 -0.500000
C 8.610000 19.173802 -0.500000
C 9.840000 19.883943 -0.500000
C 7.380000 21.304225 -0.500000
C 8.610000 22.014366 -0.500000
C 6.150000 23.434647 -0.500000
C 7.380000 24.144788 -0.500000
C 4.920000 25.565070 -0.500000
C 6.150000 26.275211 -0.500000
C 3.690000 27.695492 -0.500000
C 4.920000 28.405633 -0.500000
C 2.460000 29.825915 -0.500000
C 3.690000 30.536056 -0.500000
C 1.230000 31.956337 -0.500000
C 2.460000 32.666478 -0.500000
C 0.000000 34.086760 -0.500000
C 1.230000 34.796901 -0.500000
C -1.230000 36.217182 -0.500000
C 0.000000 36.927323 -0.500000
C -2.460000 38.347605 -0.500000
C -1.230000 39.057746 -0.500000
C -3.690000 40.478027 -0.500000
C -2.460000 41.188168 -0.500000
C -4.920000 42.608450 -0.500000
C -3.690000 43.318591 -0.500000
C -6.150000 44.738872 -0.500000
C -4.920000 45.449013 -0.500000
C -7.380000 46.869295 -0.500000
C -6.150000 47.579436 -0.500000
C -8.610000 48.999717 -0.500000
C -7.380000 49.709858 -0.500000
C -9.840000 51.130140 -0.500000
C -8.610000 51.840281 -0.500000
C -11.070000 53.260562 -0.500000
C -9.840000 53.970703 -0.500000
C -12.300000 55.390985 -0.500000
C -11.070000 56.101126 -0.500000
C -13.530000 57.521407 -0.500000
C -12.300000 58.231548 -0.500000
C 22.140000 0.000000 -0.500000
C 23.370000 0.710141 -0.500000
C 20.910000 2.130422 -0.500000
C 22.140000 2.840563 -0.500000
C 19.680000 4.260845 -0.500000
C 20.910000 4.970986 -0.500000
C 18.450000 6.391267 -0.500000
C 19.680000 7.101408 -0.500000
C 17.220000 8.521690 -0.500000
C 18.450000 9.231831 -0.500000
C 15.990000 10.652112 -0.500000
C 17.220000 11.362253 -0.500000
C 14.760000 12.782535 -0.500000
C 15.990000 13.492676 -0.500000
C 13.530000 14.912957 -0.500000
C 14.760000 15.623098 -0.500000
C 12.300000 17.043380 -0.500000
C 13.530000 17.753521 -0.500000
C 11.070000 19.173802 -0.500000
C 12.300000 19.883943 -0.500000
C 9.840000 21.304225 -0.500000
C 11.070000 22.014366 -0.500000
C 8.610000 23.434647 -0.500000
C 9.840000 24.144788 -0.500000
C 7.380000 25.565070 -0.500000
C 8.610000 26.275211 -0.500000
C 6.150000 27.695492 -0.500000
C 7.380000 28.405633 -0.500000
C 4.920000 29.825915 -0.500000
C 6.150000 30.536056 -0.500000
C 3.690000 31.956337 -0.500000
C 4.920000 32.666478 -0.500000
C 2.460000 34.086760 -0.500000
C 3.690000 34.796901 -0.500000
C 1.230000 36.217182 -0.500000
C 2.460000 36.927323 -0.500000
C 0.000000 38.347605 -0.500000
C 1.230000 39.057746 -0.500000
C -1.230000 40.478027 -0.500000
C 0.000000 41.188168 -0.500000
C -2.460000 42.608450 -0.500000
C -1.230000 43.318591 -0.500000
C -3.690000 44.738872 -0.500000
C -2.460000 45.449013 -0.500000
C -4.920000 46.869295 -0.500000
C -3.690000 47.579436 -0.500000
C -6.150000 48.999717 -0.500000
C -4.920000 49.709858 -0.500000
C -7.380000 51.130140 -0.500000
C -6.150000 51.840281 -0.500000
C -8.610000 53.260562 -0.500000
C -7.380000 53.970703 -0.500000
C -9.840000 55.390985 -0.500000
C -8.610000 56.101126 -0.500000
C -11.070000 57.521407 -0.500000
C -9.840000 58.231548 -0.500000
C 24.600000 0.000000 -0.500000
C 25.830000 0.710141 -0.500000
C 23.370000 2.130422 -0.500000
C 24.600000 2.840563 -0.500000
C 22.140000 4.260845 -0.500000
C 23.370000 4.970986 -0.500000
C 20.910000 6.391267 -0.500000
C 22.140000 7.101408 -0.500000
C 19.680000 8.521690 -0.500000
C 20.910000 9.231831 -0.500000
C 18.450000 10.652112 -0.500000
C 19.680000 11.362253 -0.500000
C 17.220000 12.782535 -0.500000
C 18.450000 13.492676 -0.500000
C 15.990000 14.912957 -0.500000
C 17.220000 15.623098 -0.500000
C 14.760000 17.043380 -0.500000
C 15.990000 17.753521 -0.500000
C 13.530000 19.173802 -0.500000
C 14.760000 19.883943 -0.500000
C 12.300000 21.304225 -0.500000
C 13.530000 22.014366 -0.500000
C 11.070000 23.434647 -0.500000
C 12.300000 24.144788 -0.500000
C 9.840000 25.565070 -0.500000
C 11.070000 26.275211 -0.500000
C 8.610000 27.695492 -0.500000
C 9.840000 28.405633 -0.500000
C 7.380000 29.825915 -0.500000
C 8.610000 30.536056 -0.500000
C 6.150000 31.956337 -0.500000
C 7.380000 32.666478 -0.500000
C 4.920000 34.086760 -0.500000
C 6.150000 34.796901 -0.500000
C 3.690000 36.217182 -0.500000
C 4.920000 36.927323 -0.500000
C 2.460000 38.347605 -0.500000
C 3.690000 39.057746 -0.500000
C 1.230000 40.478027 -0.500000
C 2.460000 41.188168 -0.500000
C 0.000000 42.608450 -0.500000
C 1.230000 43.318591 -0.500000
C -1.230000 44.738872 -0.500000
C 0.000000 45.449013 -0.500000
C -2.460000 46.869295 -0.500000
C -1.230000 47.579436 -0.500000
C -3.690000 48.999717 -0.500000
C -2.460000 49.709858 -0.500000
C -4.920000 51.130140 -0.500000
C -3.690000 51.840281 -0.500000
C -6.150000 53.260562 -0.500000
C -4.920000 53.970703 -0.500000
C -7.380000 55.390985 -0.500000
C -6.150000 56.101126 -0.500000
C -8.610000 57.521407 -0.500000
C -7.380000 58.231548 -0.500000
C 27.060000 0.000000 -0.500000
C 28.290000 0.710141 -0.500000
C 25.830000 2.130422 -0.500000
C 27.060000 2.840563 -0.500000
C 24.600000 4.260845 -0.500000
C 25.830000 4.970986 -0.500000
C 23.370000 6.391267 -0.500000
C 24.600000 7.101408 -0.500000
C 22.140000 8.521690 -0.500000
C 23.370000 9.231831 -0.500000
C 20.910000 10.652112 -0.500000
C 22.140000 11.362253 -0.500000
C 19.680000 12.782535 -0.500000
C 20.910000 13.492676 -0.500000
C 18.450000 14.912957 -0.500000
C 19.680000 15.623098 -0.500000
C 17.220000 17.043380 -0.500000
C 18.450000 17.753521 -0.500000
C 15.990000 19.173802 -0.500000
C 17.220000 19.883943 -0.500000
C 14.760000 21.304225 -0.500000
C 15.990000 22.014366 -0.500000
C 13.530000 23.434647 -0.500000
C 14.760000 24.144788 -0.500000
C 12.300000 25.565070 -0.500000
C 13.530000 26.275211 -0.500000
C 11.070000 27.695492 -0.500000
C 12.300000 28.405633 -0.500000
C 9.840000 29.825915 -0.500000
C 11.070000 30.536056 -0.500000
C 8.610000 31.956337 -0.500000
C 9.840000 32.666478 -0.500000
C 7.380000 34.086760 -0.500000
C 8.610000 34.796901 -0.500000
C 6.150000 36.217182 -0.500000
C 7.380000 36.927323 -0.500000
C 4.920000 38.347605 -0.500000
C 6.150000 39.057746 -0.500000
C 3.690000 40.478027 -0.500000
C 4.920000 41.188168 -0.500000
C 2.460000 42.608450 -0.500000
C 3.690000 43.318591 -0.500000
C 1.230000 44.738872 -0.500000
C 2.460000 45.449013 -0.500000
C -0.000000 46.869295 -0.500000
C 1.230000 47.579436 -0.500000
C -1.230000 48.999717 -0.500000
C -0.000000 49.709858 -0.500000
C -2.460000 51.130140 -0.500000
C -1.230000 51.840281 -0.500000
C -3.690000 53.260562 -0.500000
C -2.460000 53.970703 -0.500000
C -4.920000 55.390985 -0.500000
C -3.690000 56.101126 -0.500000
C -6.150000 57.521407 -0.500000
C -4.920000 58.231548 -0.500000
C 29.520000 0.000000 -0.500000
C 30.750000 0.710141 -0.500000
C 28.290000 2.130422 -0.500000
C 29.520000 2.840563 -0.500000
C 27.060000 4.260845 -0.500000
C 28.290000 4.970986 -0.500000
C 25.830000 6.391267 -0.500000
C 27.060000 7.101408 -0.500000
C 24.600000 8.521690 -0.500000
C 25.830000 9.231831 -0.500000
C 23.370000 10.652112 -0.500000
C 24.600000 11.362253 -0.500000
C 22.140000 12.782535 -0.500000
C 23.370000 13.492676 -0.500000
C 20.910000 14.912957 -0.500000
C 22.140000 15.623098 -0.500000
C 19.680000 17.043380 -0.500000
C 20.910000 17.753521 -0.500000
C 18.450000 19.173802 -0.500000
C 19.680000 19.883943 -0.500000
C 17.220000 21.304225 -0.500000
C 18.450000 22.014366 -0.500000
C 15.990000 23.434647 -0.500000
C 17.220000 24.144788 -0.500000
C 14.760000 25.565070 -0.500000
C 15.990000 26.275211 -0.500000
C 13.530000 27.695492 -0.500000
C 14.760000 28.405633 -0.500000
C 12.300000 29.825915 -0.500000
C 13.530000 30.536056 -0.500000
C 11.070000 31.956337 -0.500000
C 12.300000 32.666478 -0.500000
C 9.840000 34.086760 -0.500000
C 11.070000 34.796901 -0.500000
C 8.610000 36.217182 -0.500000
C 9.840000 36.927323 -0.500000
C 7.380000 38.347605 -0.500000
C 8.610000 39.057746 -0.500000
C 6.150000 40.478027 -0.500000
C 7.380000 41.188168 -0.500000
C 4.920000 42.608450 -0.500000
C 6.150000 43.318591 -0.500000
C 3.690000 44.738872 -0.500000
C 4.920000 45.449013 -0.500000
C 2.460000 46.869295 -0.500000
C 3.690000 47.579436 -0.500000
C 1.230000 48.999717 -0.500000
C 2.460000 49.709858 -0.500000
C 0.000000 51.130140 -0.500000
C 1.230000 51.840281 -0.500000
C -1.230000 53.260562 -0.500000
C 0.000000 53.970703 -0.500000
C -2.460000 55.390985 -0.500000
C -1.230000 56.101126 -0.500000
C -3.690000 57.521407 -0.500000
C -2.460000 58.231548 -0.500000
C 31.980000 0.000000 -0.500000
C 33.210000 0.710141 -0.500000
C 30.750000 2.130422 -0.500000
C 31.980000 2.840563 -0.500000
C 29.520000 4.260845 -0.500000
C 30.750000 4.970986 -0.500000
C 28.290000 6.391267 -0.500000
C 29.520000 7.101408 -0.500000
C 27.060000 8.521690 -0.500000
C 28.290000 9.231831 -0.500000
C 25.830000 10.652112 -0.500000
C 27.060000 11.362253 -0.500000
C 24.600000 12.782535 -0.500000
C 25.830000 13.492676 -0.500000
C 23.370000 14.912957 -0.500000
C 24.600000 15.623098 -0.500000
C 22.140000 17.043380 -0.500000
C 23.370000 17.753521 -0.500000
C 20.910000 19.173802 -0.500000
C 22.140000 19.883943 -0.500000
C 19.680000 21.304225 -0.500000
C 20.910000 22.014366 -0.500000
C 18.450000 23.434647 -0.500000
C 19.680000 24.144788 -0.500000
C 17.220000 25.565070 -0.500000
C 18.450000 26.275211 -0.500000
C 15.990000 27.695492 -0.500000
C 17.220000 28.405633 -0.500000
C 14.760000 29.825915 -0.500000
C 15.990000 30.536056 -0.500000
C 13.530000 31.956337 -0.500000
C 14.760000 32.666478 -0.500000
C 12.300000 34.086760 -0.500000
C 13.530000 34.796901 -0.500000
C 11.070000 36.217182 -0.500000
C 12.300000 36.927323 -0.500000
C 9.840000 38.347605 -0.500000
C 11.070000 39.057746 -0.500000
C 8.610000 40.478027 -0.500000
C 9.840000 41.188168 -0.500000
C 7.380000 42.608450 -0.500000
C 8.610000 43.318591 -0.500000
C 6.150000 44.738872 -0.500000
C 7.380000 45.449013 -0.500000
C 4.920000 46.869295 -0.500000
C 6.150000 47.579436 -0.500000
C 3.690000 48.999717 -0.500000
C 4.920000 49.709858 -0.500000
C 2.460000 51.130140 -0.500000
C 3.690000 51.840281 -0.500000
C 1.230000 53.260562 -0.500000
C 2.460000 53.970703 -0.500000
C 0.000000 55.390985 -0.500000
C 1.230000 56.101126 -0.500000
C -1.230000 57.521407 -0.500000
C 0.000000 58.231548 -0.500000
C 34.440000 0.000000 -0.500000
C 35.670000 0.710141 -0.500000
C 33.210000 2.130422 -0.500000
C 34.440000 2.840563 -0.500000
C 31.980000 4.260845 -0.500000
C 33.210000 4.970986 -0.500000
C 30.750000 6.391267 -0.500000
C 31.980000 7.101408 -0.500000
C 29.520000 8.521690 -0.500000
C 30.750000 9.231831 -0.500000
C 28.290000 10.652112 -0.500000
C 29.520000 11.362253 -0.500000
C 27.060000 12.782535 -0.500000
C 28.290000 13.492676 -0.500000
C 25.830000 14.912957 -0.500000
C 27.060000 15.623098 -0.500000
C 24.600000 17.043380 -0.500000
C 25.830000 17.753521 -0.500000
C 23.370000 19.173802 -0.500000
C 24.600000 19.883943 -0.500000
C 22.140000 21.304225 -0.500000
C 23.370000 22.014366 -0.500000
C 20.910000 23.434647 -0.500000
C 22.140000 24.144788 -0.500000
C 19.680000 25.565070 -0.500000
C 20.910000 26.275211 -0.500000
C 18.450000 27.695492 -0.500000
C 19.680000 28.405633 -0.500000
C 17.220000 29.825915 -0.500000
C 18.450000 30.536056 -0.500000
C 15.990000 31.956337 -0.500000
C 17.220000 32.666478 -0.500000
C 14.760000 34.086760 -0.500000
C 15.990000 34.796901 -0.500000
C 13.530000 36.217182 -0.500000
C 14.760000 36.927323 -0.500000
C 12.300000 38.347605 -0.500000
C 13.530000 39.057746 -0.500000
C 11.070000 40.478027 -0.500000
C 12.300000 41.188168 -0.500000
C 9.840000 42.608450 -0.500000
C 11.070000 43.318591 -0.500000
C 8.610000 44.738872 -0.500000
C 9.840000 45.449013 -0.500000
C 7.380000 46.869295 -0.500000
C 8.610000 47.579436 -0.500000
C 6.150000 48.999717 -0.500000
C 7.380000 49.709858 -0.500000
C 4.920000 51.130140 -0.500000
C 6.150000 51.840281 -0.500000
C 3.690000 53.260562 -0.500000
C 4.920000 53.970703 -0.500000
C 2.460000 55.390985 -0.500000
C 3.690000 56.101126 -0.500000
C 1.230000 57.521407 -0.500000
C 2.460000 58.231548 -0.500000
C 36.900000 0.000000 -0.500000
C 38.130000 0.710141 -0.500000
C 35.670000 2.130422 -0.500000
C 36.900000 2.840563 -0.500000
C 34.440000 4.260845 -0.500000
C 35.670000 4.970986 -0.500000
C 33.210000 6.391267 -0.500000
C 34.440000 7.101408 -0.500000
C 31.980000 8.521690 -0.500000
C 33.210000 9.231831 -0.500000
C 30.750000 10.652112 -0.500000
C 31.980000 11.362253 -0.500000
C 29.520000 12.782535 -0.500000
C 30.750000 13.492676 -0.500000
C 28.290000 14.912957 -0.500000
C 29.520000 15.623098 -0.500000
C 27.060000 17.043380 -0.500000
C 28.290000 17.753521 -0.500000
C 25.830000 19.173802 -0.500000
C 27.060000 19.883943 -0.500000
C 24.600000 21.304225 -0.500000
C 25.830000 22.014366 -0.500000
C 23.370000 23.434647 -0.500000
C 24.600000 24.144788 -0.500000
C 22.140000 25.565070 -0.500000
C 23.370000 26.275211 -0.500000
C 20.910000 27.695492 -0.500000
C 22.140000 28.405633 -0.500000
C 19.680000 29.825915 -0.500000
C 20.910000 30.536056 -0.500000
C 18.450000 31.956337 -0.500000
C 19.680000 32.666478 -0.500000
C 17.220000 34.086760 -0.500000
C 18.450000 34.796901 -0.500000
C 15.990000 36.217182 -0.500000
C 17.220000 36.927323 -0.500000
C 14.760000 38.347605 -0.500000
C 15.990000 39.057746 -0.500000
C 13.530000 40.478027 -0.500000
C 14.760000 41.188168 -0.500000
C 12.300000 42.608450 -0.500000
C 13.530000 43.318591 -0.500000
C 11.070000 44.738872 -0.500000
C 12.300000 45.449013 -0.500000
C 9.840000 46.869295 -0.500000
C 11.070000 47.579436 -0.500000
C 8.610000 48.999717 -0.500000
C 9.840000 49.709858 -0.500000
C 7.380000 51.130140 -0.500000
C 8.610000 51.840281 -0.500000
C 6.150000 53.260562 -0.500000
C 7.380000 53.970703 -0.500000
C 4.920000 55.390985 -0.500000
C 6.150000 56.101126 -0.500000
C 3.690000 57.521407 -0.500000
C 4.920000 58.231548 -0.500000
C 39.360000 0.000000 -0.500000
C 40.590000 0.710141 -0.500000
C 38.130000 2.130422 -0.500000
C 39.360000 2.840563 -0.500000
C 36.900000 4.260845 -0.500000
C 38.130000 4.970986 -0.500000
C 35.670000 6.391267 -0.500000
C 36.900000 7.101408 -0.500000
C 34.440000 8.521690 -0.500000
C 35.670000 9.231831 -0.500000
C 33.210000 10.652112 -0.500000
C 34.440000 11.362253 -0.500000
C 31.980000 12.782535 -0.500000
C 33.210000 13.492676 -0.500000
C 30.750000 14.912957 -0.500000
C 31.980000 15.623098 -0.500000
C 29.520000 17.043380 -0.500000
C 30.750000 17.753521 -0.500000
C 28.290000 19.173802 -0.500000
C 29.520000 19.883943 -0.500000
C 27.060000 21.304225 -0.500000
C 28.290000 22.014366 -0.500000
C 25.830000 23.434647 -0.500000
C 27.060000 24.144788 -0.500000
C 24.600000 25.565070 -0.500000
C 25.830000 26.275211 -0.500000
C 23.370000 27.695492 -0.500000
C 24.600000 28.405633 -0.500000
C 22.140000 29.825915 -0.500000
C 23.370000 30.536056 -0.500000
C 20.910000 31.956337 -0.500000
C 22.140000 32.666478 -0.500000
C 19.680000 34.086760 -0.500000
C 20.910000 34.796901 -0.500000
C 18.450000 36.217182 -0.500000
C 19.680000 36.927323 -0.500000
C 17.220000 38.347605 -0.500000
C 18.450000 39.057746 -0.500000
C 15.990000 40.478027 -0.500000
C 17.220000 41.188168 -0.500000
C 14.760000 42.608450 -0.500000
C 15.990000 43.318591 -0.500000
C 13.530000 44.738872 -0.500000
C 14.760000 45.449013 -0.500000
C 12.300000 46.869295 -0.500000
C 13.530000 47.579436 -0.500000
C 11.070000 48.999717 -0.500000
C 12.300000 49.709858 -0.500000
C 9.840000 51.130140 -0.500000
C 11.070000 51.840281 -0.500000
C 8.610000 53.260562 -0.500000
C 9.840000 53.970703 -0.500000
C 7.380000 55.390985 -0.500000
C 8.610000 56.101126 -0.500000
C 6.150000 57.521407 -0.500000
C 7.380000 58.231548 -0.500000
C 41.820000 0.000000 -0.500000
C 43.050000 0.710141 -0.500000
C 40.590000 2.130422 -0.500000
C 41.820000 2.840563 -0.500000
C 39.360000 4.260845 -0.500000
C 40.590000 4.970986 -0.500000
C 38.130000 6.391267 -0.500000
C 39.360000 7.101408 -0.500000
C 36.900000 8.521690 -0.500000
C 38.130000 9.231831 -0.500000
C 35.670000 10.652112 -0.500000
C 36.900000 11.362253 -0.500000
C 34.440000 12.782535 -0.500000
C 35.670000 13.492676 -0.500000
C 33.210000 14.912957 -0.500000
C 34.440000 15.623098 -0.500000
C 31.980000 17.043380 -0.500000
C 33.210000 17.753521 -0.500000
C 30.750000 19.173802 -0.500000
C 31.980000 19.883943 -0.500000
C 29.520000 21.304225 -0.500000
C 30.750000 22.014366 -0.500000
C 28.290000 23.434647 -0.500000
C 29.520000 24.144788 -0.500000
C 27.060000 25.565070 -0.500000
C 28.290000 26.275211 -0.500000
C 25.830000 27.695492 -0.500000
C 27.060000 28.405633 -0.500000
C 24.600000 29.825915 -0.500000
C 25.830000 30.536056 -0.500000
C 23.370000 31.956337 -0.500000
C 24.600000 32.666478 -0.500000
C 22.140000 34.086760 -0.500000
C 23.370000 34.796901 -0.500000
C 20.910000 36.217182 -0.500000
C 22.140000 36.927323 -0.500000
C 19.680000 38.347605 -0.500000
C 20.910000 39.057746 -0.500000
C 18.450000 40.478027 -0.500000
C 19.680000 41.188168 -0.500000
C 17.220000 42.608450 -0.500000
C 18.450000 43.318591 -0.500000
C 15.990000 44.738872 -0.500000
C 17.220000 45.449013 -0.500000
C 14.760000 46.869295 -0.500000
C 15.990000 47.579436 -0.500000
C 13.530000 48.999717 -0.500000
C 14.760000 49.709858 -0.500000
C 12.300000 51.130140 -0.500000
C 13.530000 51.840281 -0.500000
C 11.070000 53.260562 -0.500000
C 12.300000 53.970703 -0.500000
C 9.840000 55.390985 -0.500000
C 11.070000 56.101126 -0.500000
C 8.610000 57.521407 -0.500000
C 9.840000 58.231548 -0.500000
C 44.280000 0.000000 -0.500000
C 45.510000 0.710141 -0.500000
C 43.050000 2.130422 -0.500000
C 44.280000 2.840563 -0.500000
C 41.820000 4.260845 -0.500000
C 43.050000 4.970986 -0.500000
C 40.590000 6.391267 -0.500000
C 41.820000 7.101408 -0.500000
C 39.360000 8.521690 -0.500000
C 40.590000 9.231831 -0.500000
C 38.130000 10.652112 -0.500000
C 39.360000 11.362253 -0.500000
C 36.900000 12.782535 -0.500000
C 38.130000 13.492676 -0.500000
C 35.670000 14.912957 -0.500000
C 36.900000 15.623098 -0.500000
C 34.440000 17.043380 -0.500000
C 35.670000 17.753521 -0.500000
C 33.210000 19.173802 -0.500000
C 34.440000 19.883943 -0.500000
C 31.980000 21.304225 -0.500000
C 33.210000 22.014366 -0.500000
C 30.750000 23.434647 -0.500000
C 31.980000 24.144788 -0.500000
C 29.520000 25.565070 -0.500000
C 30.750000 26.275211 -0.500000
C 28.290000 27.695492 -0.500000
C 29.520000 28.405633 -0.500000
C 27.060000 29.825915 -0.500000
C 28.290000 30.536056 -0.500000
C 25.830000 31.956337 -0.500000
C 27.060000 32.666478 -0.500000
C 24.600000 34.086760 -0.500000
C 25.830000 34.796901 -0.500000
C 23.370000 36.217182 -0.500000
C 24.600000 36.927323 -0.500000
C 22.140000 38.347605 -0.500000
C 23.370000 39.057746 -0.500000
C 20.910000 40.478027 -0.500000
C 22.140000 41.188168 -0.500000
C 19.680000 42.608450 -0.500000
C 20.910000 43.318591 -0.500000
C 18.450000 44.738872 -0.500000
C 19.680000 45.449013 -0.500000
C 17.220000 46.869295 -0.500000
C 18.450000 47.579436 -0.500000
C 15.990000 48.999717 -0.500000
C 17.220000 49.709858 -0.500000
C 14.760000 51.130140 -0.500000
C 15.990000 51.840281 -0.500000
C 13.530000 53.260562 -0.500000
C 14.760000 53.970703 -0.500000
C 12.300000 55.390985 -0.500000
C 13.530000 56.101126 -0.500000
C 11.070000 57.521407 -0.500000
C 12.300000 58.231548 -0.500000
C 46.740000 0.000000 -0.500000
C 47.970000 0.710141 -0.500000
C 45.510000 2.130422 -0.500000
C 46.740000 2.840563 -0.500000
C 44.280000 4.260845 -0.500000
C 45.510000 4.970986 -0.500000
C 43.050000 6.391267 -0.500000
C 44.280000 7.101408 -0.500000
C 41.820000 8.521690 -0.500000
C 43.050000 9.231831 -0.500000
C 40.590000 10.652112 -0.500000
C 41.820000 11.362253 -0.500000
C 39.360000 12.782535 -0.500000
C 40.590000 13.492676 -0.500000
C 38.130000 14.912957 -0.500000
C 39.360000 15.623098 -0.500000
C 36.900000 17.043380 -0.500000
C 38.130000 17.753521 -0.500000
C 35.670000 19.173802 -0.500000
C 36.900000 19.883943 -0.500000
C 34.440000 21.304225 -0.500000
C 35.670000 22.014366 -0.500000
C 33.210000 23.434647 -0.500000
C 34.440000 24.144788 -0.500000
C 31.980000 25.565070 -0.500000
C 33.210000 26.275211 -0.500000
C 30.750000 27.695492 -0.500000
C 31.980000 28.405633 -0.500000
C 29.520000 29.825915 -0.500000
C 30.750000 30.536056 -0.500000
C 28.290000 31.956337 -0.500000
C 29.520000 32.666478 -0.500000
C 27.060000 34.086760 -0.500000
C 28.290000 34.796901 -0.500000
C 25.830000 36.217182 -0.500000
C 27.060000 36.927323 -0.500000
C 24.600000 38.347605 -0.500000
C 25.830000 39.057746 -0.500000
C 23.370000 40.478027 -0.500000
C 24.600000 41.188168 -0.500000
C 22.140000 42.608450 -0.500000
C 23.370000 43.318591 -0.500000
C 20.910000 44.738872 -0.500000
C 22.140000 45.449013 -0.500000
C 19.680000 46.869295 -0.500000
C 20.910000 47.579436 -0.500000
C 18.450000 48.999717 -0.500000
C 19.680000 49.709858 -0.500000
C 17.220000 51.130140 -0.500000
C 18.450000 51.840281 -0.500000
C 15.990000 53.260562 -0.500000
C 17.220000 53.970703 -0.500000
C 14.760000 55.390985 -0.500000
C 15.990000 56.101126 -0.500000
C 13.530000 57.521407 -0.500000
C 14.760000 58.231548 -0.500000
C 49.200000 0.000000 -0.500000
C 50.430000 0.710141 -0.500000
C 47.970000 2.130422 -0.500000
C 49.200000 2.840563 -0.500000
C 46.740000 4.260845 -0.500000
C 47.970000 4.970986 -0.500000
C 45.510000 6.391267 -0.500000
C 46.740000 7.101408 -0.500000
C 44.280000 8.521690 -0.500000
C 45.510000 9.231831 -0.500000
C 43.050000 10.652112 -0.500000
C 44.280000 11.362253 -0.500000
C 41.820000 12.782535 -0.500000
C 43.050000 13.492676 -0.500000
C 40.590000 14.912957 -0.500000
C 41.820000 15.623098 -0.500000
C 39.360000 17.043380 -0.500000
C 40.590000 17.753521 -0.500000
C 38.130000 19.173802 -0.500000
C 39.360000 19.883943 -0.500000
C 36.900000 21.304225 -0.500000
C 38.130000 22.014366 -0.500000
C 35.670000 23.434647 -0.500000
C 36.900000 24.144788 -0.500000
C 34.440000 25.565070 -0.500000
C 35.670000 26.275211 -0.500000
C 33.210000 27.695492 -0.500000
C 34.440000 28.405633 -0.500000
C 31.980000 29.825915 -0.500000
C 33.210000 30.536056 -0.500000
C 30.750000 31.956337 -0.500000
C 31.980000 32.666478 -0.500000
C 29.520000 34.086760 -0.500000
C 30.750000 34.796901 -0.500000
C 28.290000 36.217182 -0.500000
C 29.520000 36.927323 -0.500000
C 27.060000 38.347605 -0.500000
C 28.290000 39.057746 -0.500000
C 25.830000 40.478027 -0.500000
C 27.060000 41.188168 -0.500000
C 24.600000 42.608450 -0.500000
C 25.830000 43.318591 -0.500000
C 23.370000 44.738872 -0.500000
C 24.600000 45.449013 -0.500000
C 22.140000 46.869295 -0.500000
C 23.370000 47.579436 -0.500000
C 20.910000 48.999717 -0.500000
C 22.140000 49.709858 -0.500000
C 19.680000 51.130140 -0.500000
C 20.910000 51.840281 -0.500000
C 18.450000 53.260562 -0.500000
C 19.680000 53.970703 -0.500000
C 17.220000 55.390985 -0.500000
C 18.450000 56.101126 -0.500000
C 15.990000 57.521407 -0.500000
C 17.220000 58.231548 -0.500000
C 51.660000 0.000000 -0.500000
C 52.890000 0.710141 -0.500000
C 50.430000 2.130422 -0.500000
C 51.660000 2.840563 -0.500000
C 49.200000 4.260845 -0.500000
C 50.430000 4.970986 -0.500000
C 47.970000 6.391267 -0.500000
C 49.200000 7.101408 -0.500000
C 46.740000 8.521690 -0.500000
C 47.970000 9.231831 -0.500000
C 45.510000 10.652112 -0.500000
C 46.740000 11.362253 -0.500000
C 44.280000 12.782535 -0.500000
C 45.510000 13.492676 -0.500000
C 43.050000 14.912957 -0.500000
C 44.280000 15.623098 -0.500000
C 41.820000 17.043380 -0.500000
C 43.050000 17.753521 -0.500000
C 40.590000 19.173802 -0.500000
C 41.820000 19.883943 -0.500000
C 39.360000 21.304225 -0.500000
C 40.590000 22.014366 -0.500000
C 38.130000 23.434647 -0.500000
C 39.360000 24.144788 -0.500000
C 36.900000 25.565070 -0.500000
C 38.130000 26.275211 -0.500000
C 35.670000 27.695492 -0.500000
C 36.900000 28.405633 -0.500000
C 34.440000 29.825915 -0.500000
C 35.670000 30.536056 -0.500000
C 33.210000 31.956337 -0.500000
C 34.440000 32.666478 -0.500000
C 31.980000 34.086760 -0.500000
C 33.210000 34.796901 -0.500000
C 30.750000 36.217182 -0.500000
C 31.980000 36.927323 -0.500000
C 29.520000 38.347605 -0.500000
C 30.750000 39.057746 -0.500000
C 28.290000 40.478027 -0.500000
C 29.520000 41.188168 -0.500000
C 27.060000 42.608450 -0.500000
C 28.290000 43.318591 -0.500000
C 25.830000 44.738872 -0.500000
C 27.060000 45.449013 -0.500000
C 24.600000 46.869295 -0.500000
C 25.830000 47.579436 -0.500000
C 23.370000 48.999717 -0.500000
C 24.600000 49.709858 -0.500000
C 22.140000 51.130140 -0.500000
C 23.370000 51.840281 -0.500000
C 20.910000 53.260562 -0.500000
C 22.140000 53.970703 -0.500000
C 19.680000 55.390985 -0.500000
C 20.910000 56.101126 -0.500000
C 18.450000 57.521407 -0.500000
C 19.680000 58.231548 -0.500000
C 54.120000 0.000000 -0.500000
C 55.350000 0.710141 -0.500000
C 52.890000 2.130422 -0.500000
C 54.120000 2.840563 -0.500000
C 51.660000 4.260845 -0.500000
C 52.890000 4.970986 -0.500000
C 50.430000 6.391267 -0.500000
C 51.660000 7.101408 -0.500000
C 49.200000 8.521690 -0.500000
C 50.430000 9.231831 -0.500000
C 47.970000 10.652112 -0.500000
C 49.200000 11.362253 -0.500000
C 46.740000 12.782535 -0.500000
C 47.970000 13.492676 -0.500000
C 45.510000 14.912957 -0.500000
C 46.740000 15.623098 -0.500000
C 44.280000 17.043380 -0.500000
C 45.510000 17.753521 -0.500000
C 43.050000 19.173802 -0.500000
C 44.280000 19.883943 -0.500000
C 41.820000 21.304225 -0.500000
C 43.050000 22.014366 -0.500000
C 40.590000 23.434647 -0.500000
C 41.820000 24.144788 -0.500000
C 39.360000 25.565070 -0.500000
C 40.590000 26.275211 -0.500000
C 38.130000 27.695492 -0.500000
C 39.360000 28.405633 -0.500000
C 36.900000 29.825915 -0.500000
C 38.130000 30.536056 -0.500000
C 35.670000 31.956337 -0.500000
C 36.900000 32.666478 -0.500000
C 34.440000 34.086760 -0.500000
C 35.670000 34.796901 -0.500000
C 33.210000 36.217182 -0.500000
C 34.440000 36.927323 -0.500000
C 31.980000 38.347605 -0.500000
C 33.210000 39.057746 -0.500000
C 30.750000 40.478027 -0.500000
C 31.980000 41.188168 -0.500000
C 29.520000 42.608450 -0.500000
C 30.750000 43.318591 -0.500000
C 28.290000 44.738872 -0.500000
C 29.520000 45.449013 -0.500000
C 27.060000 46.869295 -0.500000
C 28.290000 47.579436 -0.500000
C 25.830000 48.999717 -0.500000
C 27.060000 49.709858 -0.500000
C 24.600000 51.130140 -0.500000
C 25.830000 51.840281 -0.500000
C 23.370000 53.260562 -0.500000
C 24.600000 53.970703 -0.500000
C 22.140000 55.390985 -0.500000
C 23.370000 56.101126 -0.500000
C 20.910000 57.521407 -0.500000
C 22.140000 58.231548 -0.500000
C 56.580000 0.000000 -0.500000
C 57.810000 0.710141 -0.500000
C 55.350000 2.130422 -0.500000
C 56.580000 2.840563 -0.500000
C 54.120000 4.260845 -0.500000
C 55.350000 4.970986 -0.500000
C 52.890000 6.391267 -0.500000
C 54.120000 7.101408 -0.500000
C 51.660000 8.521690 -0.500000
C 52.890000 9.231831 -0.500000
C 50.430000 10.652112 -0.500000
C 51.660000 11.362253 -0.500000
C 49.200000 12.782535 -0.500000
C 50.430000 13.492676 -0.500000
C 47.970000 14.912957 -0.500000
C 49.200000 15.623098 -0.500000
C 46.740000 17.043380 -0.500000
C 47.970000 17.753521 -0.500000
C 45.510000 19.173802 -0.500000
C 46.740000 19.883943 -0.500000
C 44.280000 21.304225 -0.500000
C 45.510000 22.014366 -0.500000
C 43.050000 23.434647 -0.500000
C 44.280000 24.144788 -0.500000
C 41.820000 25.565070 -0.500000
C 43.050000 26.275211 -0.500000
C 40.590000 27.695492 -0.500000
C 41.820000 28.405633 -0.500000
C 39.360000 29.825915 -0.500000
C 40.590000 30.536056 -0.500000
C 38.130000 31.956337 -0.500000
C 39.360000 32.666478 -0.500000
C 36.900000 34.086760 -0.500000
C 38.130000 34.796901 -0.500000
C 35.670000 36.217182 -0.500000
C 36.900000 36.927323 -0.500000
C 34.440000 38.347605 -0.500000
C 35.670000 39.057746 -0.500000
C 33.210000 40.478027 -0.500000
C 34.440000 41.188168 -0.500000
C 31.980000 42.608450 -0.500000
C 33.210000 43.318591 -0.500000
C 30.750000 44.738872 -0.500000
C 31.980000 45.449013 -0.500000
C 29.520000 46.869295 -0.500000
C 30.750000 47.579436 -0.500000
C 28.290000 48.999717 -0.500000
C 29.520000 49.709858 -0.500000
C 27.060000 51.130140 -0.500000
C 28.290000 51.840281 -0.500000
C 25.830000 53.260562 -0.500000
C 27.060000 53.970703 -0.500000
C 24.600000 55.390985 -0.500000
C 25.830000 56.101126 -0.500000
C 23.370000 57.521407 -0.500000
C 24.600000 58.231548 -0.500000
C 59.040000 0.000000 -0.500000
C 60.270000 0.710141 -0.500000
C 57.810000 2.130422 -0.500000
C 59.040000 2.840563 -0.500000
C 56.580000 4.260845 -0.500000
C 57.810000 4.970986 -0.500000
C 55.350000 6.391267 -0.500000
C 56.580000 7.101408 -0.500000
C 54.120000 8.521690 -0.500000
C 55.350000 9.231831 -0.500000
C 52.890000 10.652112 -0.500000
C 54.120000 11.362253 -0.500000
C 51.660000 12.782535 -0.500000
C 52.890000 13.492676 -0.500000
C 50.430000 14.912957 -0.500000
C 51.660000 15.623098 -0.500000
C 49.200000 17.043380 -0.500000
C 50.430000 17.753521 -0.500000
C 47.970000 19.173802 -0.500000
C 49.200000 19.883943 -0.500000
C 46.740000 21.304225 -0.500000
C 47.970000 22.014366 -0.500000
C 45.510000 23.434647 -0.500000
C 46.740000 24.144788 -0.500000
C 44.280000 25.565070 -0.500000
C 45.510000 26.275211 -0.500000
C 43.050000 27.695492 -0.500000
C 44.280000 28.405633 -0.500000
C 41.820000 29.825915 -0.500000
C 43.050000 30.536056 -0.500000
C 40.590000 31.956337 -0.500000
C 41.820000 32.666478 -0.500000
C 39.360000 34.086760 -0.500000
C 40.590000 34.796901 -0.500000
C 38.130000 36.217182 -0.500000
C 39.360000 36.927323 -0.500000
C 36.900000 38.347605 -0.500000
C 38.130000 39.057746 -0.500000
C 35.670000 40.478027 -0.500000
C 36.900000 41.188168 -0.500000
C 34.440000 42.608450 -0.500000
C 35.670000 43.318591 -0.500000
C 33.210000 44.738872 -0.500000
C 34.440000 45.449013 -0.500000
C 31.980000 46.869295 -0.500000
C 33.210000 47.579436 -0.500000
C 30.750000 48.999717 -0.500000
C 31.980000 49.709858 -0.500000
C 29.520000 51.130140 -0.500000
C 30.750000 51.840281 -0.500000
C 28.290000 53.260562 -0.500000
C 29.520000 53.970703 -0.500000
C 27.060000 55.390985 -0.500000
C 28.290000 56.101126 -0.500000
C 25.830000 57.521407 -0.500000
C 27.060000 58.231548 -0.500000
C 61.500000 0.000000 -0.500000
C 62.730000 0.710141 -0.500000
C 60.270000 2.130422 -0.500000
C 61.500000 2.840563 -0.500000
C 59.040000 4.260845 -0.500000
C 60.270000 4.970986 -0.500000
C 57.810000 6.391267 -0.500000
C 59.040000 7.101408 -0.500000
C 56.580000 8.521690 -0.500000
C 57.810000 9.231831 -0.500000
C 55.350000 10.652112 -0.500000
C 56.580000 11.362253 -0.500000
C 54.120000 12.782535 -0.500000
C 55.350000 13.492676 -0.500000
C 52.890000 14.912957 -0.500000
C 54.120000 15.623098 -0.500000
C 51.660000 17.043380 -0.500000
C 52.890000 17.753521 -0.500000
C 50.430000 19.173802 -0.500000
C 51.660000 19.883943 -0.500000
C 49.200000 21.304225 -0.500000
C 50.430000 22.014366 -0.500000
C 47.970000 23.434647 -0.500000
C 49.200000 24.144788 -0.500000
C 46.740000 25.565070 -0.500000
C 47.970000 26.275211 -0.500000
C 45.510000 27.695492 -0.500000
C 46.740000 28.405633 -0.500000
C 44.280000 29.825915 -0.500000
C 45.510000 30.536056 -0.500000
C 43.050000 31.956337 -0.500000
C 44.280000 32.666478 -0.500000
C 41.820000 34.086760 -0.500000
C 43.050000 34.796901 -0.500000
C 40.590000 36.217182 -0.500000
C 41.820000 36.927323 -0.500000
C 39.360000 38.347605 -0.500000
C 40.590000 39.057746 -0.500000
C 38.130000 40.478027 -0.500000
C 39.360000 41.188168 -0.500000
C 36.900000 42.608450 -0.500000
C 38.130000 43.318591 -0.500000
C 35.670000 44.738872 -0.500000
C 36.900000 45.449013 -0.500000
C 34.440000 46.869295 -0.500000
C 35.670000 47.579436 -0.500000
C 33.210000 48.999717 -0.500000
C 34.440000 49.709858 -0.500000
C 31.980000 51.130140 -0.500000
C 33.210000 51.840281 -0.500000
C 30.750000 53.260562 -0.500000
C 31.980000 53.970703 -0.500000
C 29.520000 55.390985 -0.500000
C 30.750000 56.101126 -0.500000
C 28.290000 57.521407 -0.500000
C 29.520000 58.231548 -0.500000
C 63.960000 0.000000 -0.500000
C 65.190000 0.710141 -0.500000
C 62.730000 2.130422 -0.500000
C 63.960000 2.840563 -0.500000
C 61.500000 4.260845 -0.500000
C 62.730000 4.970986 -0.500000
C 60.270000 6.391267 -0.500000
C 61.500000 7.101408 -0.500000
C 59.040000 8.521690 -0.500000
C 60.270000 9.231831 -0.500000
C 57.810000 10.652112 -0.500000
C 59.040000 11.362253 -0.500000
C 56.580000 12.782535 -0.500000
C 57.810000 13.492676 -0.500000
C 55.350000 14.912957 -0.500000
C 56.580000 15.623098 -0.500000
C 54.120000 17.043380 -0.500000
C 55.350000 17.753521 -0.500000
C 52.890000 19.173802 -0.500000
C 54.120000 19.883943 -0.500000
C 51.660000 21.304225 -0.500000
C 52.890000 22.014366 -0.500000
C 50.430000 23.434647 -0.500000
C 51.660000 24.144788 -0.500000
C 49.200000 25.565070 -0.500000
C 50.430000 26.275211 -0.500000
C 47.970000 27.695492 -0.500000
C 49.200000 28.405633 -0.500000
C 46.740000 29.825915 -0.500000
C 47.970000 30.536056 -0.500000
C 45.510000 31.956337 -0.500000
C 46.740000 32.666478 -0.500000
C 44.280000 34.086760 -0.500000
C 45.510000 34.796901 -0.500000
C 43.050000 36.217182 -0.500000
C 44.280000 36.927323 -0.500000
C 41.820000 38.347605 -0.500000
C 43.050000 39.057746 -0.500000
C 40.590000 40.478027 -0.500000
C 41.820000 41.188168 -0.500000
C 39.360000 42.608450 -0.500000
C 40.590000 43.318591 -0.500000
C 38.130000 44.738872 -0.500000
C 39.360000 45.449013 -0.500000
C 36.900000 46.869295 -0.500000
C 38.130000 47.579436 -0.500000
C 35.670000 48.999717 -0.500000
C 36.900000 49.709858 -0.500000
C 34.440000 51.130140 -0.500000
C 35.670000 51.840281 -0.500000
C 33.210000 53.260562 -0.500000
C 34.440000 53.970703 -0.500000
C 31.980000 55.390985 -0.500000
C 33.210000 56.101126 -0.500000
C 30.750000 57.521407 -0.500000
C 31.980000 58.231548 -0.500000
C 66.420000 0.000000 -0.500000
C 67.650000 0.710141 -0.500000
C 65.190000 2.130422 -0.500000
C 66.420000 2.840563 -0.500000
C 63.960000 4.260845 -0.500000
C 65.190000 4.970986 -0.500000
C 62.730000 6.391267 -0.500000
C 63.960000 7.101408 -0.500000
C 61.500000 8.521690 -0.500000
C 62.730000 9.231831 -0.500000
C 60.270000 10.652112 -0.500000
C 61.500000 11.362253 -0.500000
C 59.040000 12.782535 -0.500000
C 60.270000 13.492676 -0.500000
C 57.810000 14.912957 -0.500000
C 59.040000 15.623098 -0.500000
C 56.580000 17.043380 -0.500000
C 57.810000 17.753521 -0.500000
C 55.350000 19.173802 -0.500000
C 56.580000 19.883943 -0.500000
C 54.120000 21.304225 -0.500000
C 55.350000 22.014366 -0.500000
C 52.890000 23.434647 -0.500000
C 54.120000 24.144788 -0.500000
C 51.660000 25.565070 -0.500000
C 52.890000 26.275211 -0.500000
C 50.430000 27.695492 -0.500000
C 51.660000 28.405633 -0.500000
C 49.200000 29.825915 -0.500000
C 50.430000 30.536056 -0.500000
C 47.970000 31.956337 -0.500000
C 49.200000 32.666478 -0.500000
C 46.740000 34.086760 -0.500000
C 47.970000 34.796901 -0.500000
C 45.510000 36.217182 -0.500000
C 46.740000 36.927323 -0.500000
C 44.280000 38.347605 -0.500000
C 45.510000 39.057746 -0.500000
C 43.050000 40.478027 -0.500000
C 44.280000 41.188168 -0.500000
C 41.820000 42.608450 -0.500000
C 43.050000 43.318591 -0.500000
C 40.590000 44.738872 -0.500000
C 41.820000 45.449013 -0.500000
C 39.360000 46.869295 -0.500000
C 40.590000 47.579436 -0.500000
C 38.130000 48.999717 -0.500000
C 39.360000 49.709858 -0.500000
C 36.900000 51.130140 -0.500000
C 38.130000 51.840281 -0.500000
C 35.670000 53.260562 -0.500000
C 36.900000 53.970703 -0.500000
C 34.440000 55.390985 -0.500000
C 35.670000 56.101126 -0.500000
C 33.210000 57.521407 -0.500000
C 34.440000 58.231548 -0.500000
