1600
Properties=species:S:1:pos:R:3
C 6.780001 0.000000 0.000000
C 6.631841 1.409641 0.000000
C 6.448164 2.095135 1.229756
C 5.871653 3.390000 1.229756
C 5.485136 3.985184 -0.000000
C 4.536706 5.038522 2.459512
C 3.985184 5.485136 1.229756
C 2.757675 6.193839 1.229756
C 2.095135 6.448164 -0.000000
C 0.708703 6.742859 2.459512
C 0.000000 6.780001 1.229756
C -1.409641 6.631841 1.229756
C -2.095135 6.448164 -0.000000
C -3.390000 5.871653 2.459512
C -3.985184 5.485136 1.229756
C -5.038522 4.536706 1.229756
C -5.485136 3.985184 -0.000000
C -6.193839 2.757675 2.459512
C -6.448164 2.095135 1.229756
C -6.742859 0.708703 1.229756
C -6.780001 0.000000 -0.000000
C -6.631841 -1.409641 2.459512
C -6.448164 -2.095135 1.229756
C -5.871653 -3.390000 1.229756
C -5.485136 -3.985184 -0.000000
C -4.536706 -5.038522 2.459512
C -3.985184 -5.485136 1.229756
C -2.757675 -6.193839 1.229756
C -2.095135 -6.448164 -0.000000
C -0.708703 -6.742859 2.459512
C -0.000000 -6.780001 1.229756
C 1.409641 -6.631841 1.229756
C 2.095135 -6.448164 -0.000000
C 3.390000 -5.871653 2.459512
C 3.985184 -5.485136 1.229756
C 5.038522 -4.536706 1.229756
C 5.485136 -3.985184 -0.000000
C 6.193839 -2.757675 2.459512
C 6.448164 -2.095135 1.229756
C 6.742859 -0.708703 1.229756
C 6.780001 0.000000 2.459512
C 6.631841 1.409641 2.459512
C 6.448164 2.095135 3.689268
C 5.871653 3.390000 3.689268
C 5.485136 3.985184 2.459512
C 4.536706 5.038522 4.919024
C 3.985184 5.485136 3.689268
C 2.757675 6.193839 3.689268
C 2.095135 6.448164 2.459512
C 0.708703 6.742859 4.919024
C 0.000000 6.780001 3.689268
C -1.409641 6.631841 3.689268
C -2.095135 6.448164 2.459512
C -3.390000 5.871653 4.919024
C -3.985184 5.485136 3.689268
C -5.038522 4.536706 3.689268
C -5.485136 3.985184 2.459512
C -6.193839 2.757675 4.919024
C -6.448164 2.095135 3.689268
C -6.742859 0.708703 3.689268
C -6.780001 0.000000 2.459512
C -6.631841 -1.409641 4.919024
C -6.448164 -2.095135 3.689268
C -5.871653 -3.390000 3.689268
C -5.485136 -3.985184 2.459512
C -4.536706 -5.038522 4.919024
C -3.985184 -5.485136 3.689268
C -2.757675 -6.193839 3.689268
C -2.095135 -6.448164 2.459512
C -0.708703 -6.742859 4.919024
C -0.000000 -6.780001 3.689268
C 1.409641 -6.631841 3.689268
C 2.095135 -6.448164 2.459512
C 3.390000 -5.871653 4.919024
C 3.985184 -5.485136 3.689268
C 5.038522 -4.536706 3.689268
C 5.485136 -3.985184 2.459512
C 6.193839 -2.757675 4.919024
C 6.448164 -2.095135 3.689268
C 6.742859 -0.708703 3.689268
C 6.780001 0.000000 4.919024
C 6.631841 1.409641 4.919024
C 6.448164 2.095135 6.148780
C 5.871653 3.390000 6.148780
C 5.485136 3.985184 4.919024
C 4.536706 5.038522 7.378536
C 3.985184 5.485136 6.148780
C 2.757675 6.193839 6.148780
C 2.095135 6.448164 4.919024
C 0.708703 6.742859 7.378536
C 0.000000 6.780001 6.148780
C -1.409641 6.631841 6.148780
C -2.095135 6.448164 4.919024
C -3.390000 5.871653 7.378536
C -3.985184 5.485136 6.148780
C -5.038522 4.536706 6.148780
C -5.485136 3.985184 4.919024
C -6.193839 2.757675 7.378536
C -6.448164 2.095135 6.148780
C -6.742859 0.708703 6.148780
C -6.780001 0.000000 4.919024
C -6.631841 -1.409641 7.378536
C -6.448164 -2.095135 6.148780
C -5.871653 -3.390000 6.148780
C -5.485136 -3.985184 4.919024
C -4.536706 -5.038522 7.378536
C -3.985184 -5.485136 6.148780
C -2.757675 -6.193839 6.148780
C -2.095135 -6.448164 4.919024
C -0.708703 -6.742859 7.378536
C -0.000000 -6.780001 6.148780
C 1.409641 -6.631841 6.148780
C 2.095135 -6.448164 4.919024
C 3.390000 -5.871653 7.378536
C 3.985184 -5.485136 6.148780
C 5.038522 -4.536706 6.148780
C 5.485136 -3.985184 4.919024
C 6.193839 -2.757675 7.378536
C 6.448164 -2.095135 6.148780
C 6.742859 -0.708703 6.148780
C 6.780001 0.000000 7.378536
C 6.631841 1.409641 7.378536
C 6.448164 2.095135 8.608293
C 5.871653 3.390000 8.608293
C 5.485136 3.985184 7.378536
C 4.536706 5.038522 9.838049
C 3.985184 5.485136 8.608293
C 2.757675 6.193839 8.608293
C 2.095135 6.448164 7.378536
C 0.708703 6.742859 9.838049
C 0.000000 6.780001 8.608293
C -1.409641 6.631841 8.608293
C -2.095135 6.448164 7.378536
C -3.390000 5.871653 9.838049
C -3.985184 5.485136 8.608293
C -5.038522 4.536706 8.608293
C -5.485136 3.985184 7.378536
C -6.193839 2.757675 9.838049
C -6.448164 2.095135 8.608293
C -6.742859 0.708703 8.608293
C -6.780001 0.000000 7.378536
C -6.631841 -1.409641 9.838049
C -6.448164 -2.095135 8.608293
C -5.871653 -3.390000 8.608293
C -5.485136 -3.985184 7.378536
C -4.536706 -5.038522 9.838049
C -3.985184 -5.485136 8.608293
C -2.757675 -6.193839 8.608293
C -2.095135 -6.448164 7.378536
C -0.708703 -6.742859 9.838049
C -0.000000 -6.780001 8.608293
C 1.409641 -6.631841 8.608293
C 2.095135 -6.448164 7.378536
C 3.390000 -5.871653 9.838049
C 3.985184 -5.485136 8.608293
C 5.038522 -4.536706 8.608293
C 5.485136 -3.985184 7.378536
C 6.193839 -2.757675 9.838049
C 6.448164 -2.095135 8.608293
C 6.742859 -0.708703 8.608293
C 6.780001 0.000000 9.838049
C 6.631841 1.409641 9.838049
C 6.448164 2.095135 11.067805
C 5.871653 3.390000 11.067805
C 5.485136 3.985184 9.838049
C 4.536706 5.038522 12.297561
C 3.985184 5.485136 11.067805
C 2.757675 6.193839 11.067805
C 2.095135 6.448164 9.838049
C 0.708703 6.742859 12.297561
C 0.000000 6.780001 11.067805
C -1.409641 6.631841 11.067805
C -2.095135 6.448164 9.838049
C -3.390000 5.871653 12.297561
C -3.985184 5.485136 11.067805
C -5.038522 4.536706 11.067805
C -5.485136 3.985184 9.838049
C -6.193839 2.757675 12.297561
C -6.448164 2.095135 11.067805
C -6.742859 0.708703 11.067805
C -6.780001 0.000000 9.838049
C -6.631841 -1.409641 12.297561
C -6.448164 -2.095135 11.067805
C -5.871653 -3.390000 11.067805
C -5.485136 -3.985184 9.838049
C -4.536706 -5.038522 12.297561
C -3.985184 -5.485136 11.067805
C -2.757675 -6.193839 11.067805
C -2.095135 -6.448164 9.838049
C -0.708703 -6.742859 12.297561
C -0.000000 -6.780001 11.067805
C 1.409641 -6.631841 11.067805
C 2.095135 -6.448164 9.838049
C 3.390000 -5.871653 12.297561
C 3.985184 -5.485136 11.067805
C 5.038522 -4.536706 11.067805
C 5.485136 -3.985184 9.838049
C 6.193839 -2.757675 12.297561
C 6.448164 -2.095135 11.067805
C 6.742859 -0.708703 11.067805
C 6.780001 0.000000 12.297561
C 6.631841 1.409641 12.297561
C 6.448164 2.095135 13.527317
C 5.871653 3.390000 13.527317
C 5.485136 3.985184 12.297561
C 4.536706 5.038522 14.757073
C 3.985184 5.485136 13.527317
C 2.757675 6.193839 13.527317
C 2.095135 6.448164 12.297561
C 0.708703 6.742859 14.757073
C 0.000000 6.780001 13.527317
C -1.409641 6.631841 13.527317
C -2.095135 6.448164 12.297561
C -3.390000 5.871653 14.757073
C -3.985184 5.485136 13.527317
C -5.038522 4.536706 13.527317
C -5.485136 3.985184 12.297561
C -6.193839 2.757675 14.757073
C -6.448164 2.095135 13.527317
C -6.742859 0.708703 13.527317
C -6.780001 0.000000 12.297561
C -6.631841 -1.409641 14.757073
C -6.448164 -2.095135 13.527317
C -5.871653 -3.390000 13.527317
C -5.485136 -3.985184 12.297561
C -4.536706 -5.038522 14.757073
C -3.985184 -5.485136 13.527317
C -2.757675 -6.193839 13.527317
C -2.095135 -6.448164 12.297561
C -0.708703 -6.742859 14.757073
C -0.000000 -6.780001 13.527317
C 1.409641 -6.631841 13.527317
C 2.095135 -6.448164 12.297561
C 3.390000 -5.871653 14.757073
C 3.985184 -5.485136 13.527317
C 5.038522 -4.536706 13.527317
C 5.485136 -3.985184 12.297561
C 6.193839 -2.757675 14.757073
C 6.448164 -2.095135 13.527317
C 6.742859 -0.708703 13.527317
C 6.780001 0.000000 14.757073
C 6.631841 1.409641 14.757073
C 6.448164 2.095135 15.986829
C 5.871653 3.390000 15.986829
C 5.485136 3.985184 14.757073
C 4.536706 5.038522 17.216585
C 3.985184 5.485136 15.986829
C 2.757675 6.193839 15.986829
C 2.095135 6.448164 14.757073
C 0.708703 6.742859 17.216585
C 0.000000 6.780001 15.986829
C -1.409641 6.631841 15.986829
C -2.095135 6.448164 14.757073
C -3.390000 5.871653 17.216585
C -3.985184 5.485136 15.986829
C -5.038522 4.536706 15.986829
C -5.485136 3.985184 14.757073
C -6.193839 2.757675 17.216585
C -6.448164 2.095135 15.986829
C -6.742859 0.708703 15.986829
C -6.780001 0.000000 14.757073
C -6.631841 -1.409641 17.216585
C -6.448164 -2.095135 15.986829
C -5.871653 -3.390000 15.986829
C -5.485136 -3.985184 14.757073
C -4.536706 -5.038522 17.216585
C -3.985184 -5.485136 15.986829
C -2.757675 -6.193839 15.986829
C -2.095135 -6.448164 14.757073
C -0.708703 -6.742859 17.216585
C -0.000000 -6.780001 15.986829
C 1.409641 -6.631841 15.986829
C 2.095135 -6.448164 14.757073
C 3.390000 -5.871653 17.216585
C 3.985184 -5.485136 15.986829
C 5.038522 -4.536706 15.986829
C 5.485136 -3.985184 14.757073
C 6.193839 -2.757675 17.216585
C 6.448164 -2.095135 15.986829
C 6.742859 -0.708703 15.986829
C 6.780001 0.000000 17.216585
C 6.631841 1.409641 17.216585
C 6.448164 2.095135 18.446341
C 5.871653 3.390000 18.446341
C 5.485136 3.985184 17.216585
C 4.536706 5.038522 19.676097
C 3.985184 5.485136 18.446341
C 2.757675 6.193839 18.446341
C 2.095135 6.448164 17.216585
C 0.708703 6.742859 19.676097
C 0.000000 6.780001 18.446341
C -1.409641 6.631841 18.446341
C -2.095135 6.448164 17.216585
C -3.390000 5.871653 19.676097
C -3.985184 5.485136 18.446341
C -5.038522 4.536706 18.446341
C -5.485136 3.985184 17.216585
C -6.193839 2.757675 19.676097
C -6.448164 2.095135 18.446341
C -6.742859 0.708703 18.446341
C -6.780001 0.000000 17.216585
C -6.631841 -1.409641 19.676097
C -6.448164 -2.095135 18.446341
C -5.871653 -3.390000 18.446341
C -5.485136 -3.985184 17.216585
C -4.536706 -5.038522 19.676097
C -3.985184 -5.485136 18.446341
C -2.757675 -6.193839 18.446341
C -2.095135 -6.448164 17.216585
C -0.708703 -6.742859 19.676097
C -0.000000 -6.780001 18.446341
C 1.409641 -6.631841 18.446341
C 2.095135 -6.448164 17.216585
C 3.390000 -5.871653 19.676097
C 3.985184 -5.485136 18.446341
C 5.038522 -4.536706 18.446341
C 5.485136 -3.985184 17.216585
C 6.193839 -2.757675 19.676097
C 6.448164 -2.095135 18.446341
C 6.742859 -0.708703 18.446341
C 6.780001 0.000000 19.676097
C 6.631841 1.409641 19.676097
C 6.448164 2.095135 20.905853
C 5.871653 3.390000 20.905853
C 5.485136 3.985184 19.676097
C 4.536706 5.038522 22.135609
C 3.985184 5.485136 20.905853
C 2.757675 6.193839 20.905853
C 2.095135 6.448164 19.676097
C 0.708703 6.742859 22.135609
C 0.000000 6.780001 20.905853
C -1.409641 6.631841 20.905853
C -2.095135 6.448164 19.676097
C -3.390000 5.871653 22.135609
C -3.985184 5.485136 20.905853
C -5.038522 4.536706 20.905853
C -5.485136 3.985184 19.676097
C -6.193839 2.757675 22.135609
C -6.448164 2.095135 20.905853
C -6.742859 0.708703 20.905853
C -6.780001 0.000000 19.676097
C -6.631841 -1.409641 22.135609
C -6.448164 -2.095135 20.905853
C -5.871653 -3.390000 20.905853
C -5.485136 -3.985184 19.676097
C -4.536706 -5.038522 22.135609
C -3.985184 -5.485136 20.905853
C -2.757675 -6.193839 20.905853
C -2.095135 -6.448164 19.676097
C -0.708703 -6.742859 22.135609
C -0.000000 -6.780001 20.905853
C 1.409641 -6.631841 20.905853
C 2.095135 -6.448164 19.676097
C 3.390000 -5.871653 22.135609
C 3.985184 -5.485136 20.905853
C 5.038522 -4.536706 20.905853
C 5.485136 -3.985184 19.676097
C 6.193839 -2.757675 22.135609
C 6.448164 -2.095135 20.905853
C 6.742859 -0.708703 20.905853
C 6.780001 0.000000 22.135609
C 6.631841 1.409641 22.135609
C 6.448164 2.095135 23.365365
C 5.871653 3.390000 23.365365
C 5.485136 3.985184 22.135609
C 4.536706 5.038522 24.595121
C 3.985184 5.485136 23.365365
C 2.757675 6.193839 23.365365
C 2.095135 6.448164 22.135609
C 0.708703 6.742859 24.595121
C 0.000000 6.780001 23.365365
C -1.409641 6.631841 23.365365
C -2.095135 6.448164 22.135609
C -3.390000 5.871653 24.595121
C -3.985184 5.485136 23.365365
C -5.038522 4.536706 23.365365
C -5.485136 3.985184 22.135609
C -6.193839 2.757675 24.595121
C -6.448164 2.095135 23.365365
C -6.742859 0.708703 23.365365
C -6.780001 0.000000 22.135609
C -6.631841 -1.409641 24.595121
C -6.448164 -2.095135 23.365365
C -5.871653 -3.390000 23.365365
C -5.485136 -3.985184 22.135609
C -4.536706 -5.038522 24.595121
C -3.985184 -5.485136 23.365365
C -2.757675 -6.193839 23.365365
C -2.095135 -6.448164 22.135609
C -0.708703 -6.742859 24.595121
C -0.000000 -6.780001 23.365365
C 1.409641 -6.631841 23.365365
C 2.095135 -6.448164 22.135609
C 3.390000 -5.871653 24.595121
C 3.985184 -5.485136 23.365365
C 5.038522 -4.536706 23.365365
C 5.485136 -3.985184 22.135609
C 6.193839 -2.757675 24.595121
C 6.448164 -2.095135 23.365365
C 6.742859 -0.708703 23.365365
C 6.780001 0.000000 24.595121
C 6.631841 1.409641 24.595121
C 6.448164 2.095135 25.824878
C 5.871653 3.390000 25.824878
C 5.485136 3.985184 24.595121
C 4.536706 5.038522 27.054634
C 3.985184 5.485136 25.824878
C 2.757675 6.193839 25.824878
C 2.095135 6.448164 24.595121
C 0.708703 6.742859 27.054634
C 0.000000 6.780001 25.824878
C -1.409641 6.631841 25.824878
C -2.095135 6.448164 24.595121
C -3.390000 5.871653 27.054634
C -3.985184 5.485136 25.824878
C -5.038522 4.536706 25.824878
C -5.485136 3.985184 24.595121
C -6.193839 2.757675 27.054634
C -6.448164 2.095135 25.824878
C -6.742859 0.708703 25.824878
C -6.780001 0.000000 24.595121
C -6.631841 -1.409641 27.054634
C -6.448164 -2.095135 25.824878
C -5.871653 -3.390000 25.824878
C -5.485136 -3.985184 24.595121
C -4.536706 -5.038522 27.054634
C -3.985184 -5.485136 25.824878
C -2.757675 -6.193839 25.824878
C -2.095135 -6.448164 24.595121
C -0.708703 -6.742859 27.054634
C -0.000000 -6.780001 25.824878
C 1.409641 -6.631841 25.824878
C 2.095135 -6.448164 24.595121
C 3.390000 -5.871653 27.054634
C 3.985184 -5.485136 25.824878
C 5.038522 -4.536706 25.824878
C 5.485136 -3.985184 24.595121
C 6.193839 -2.757675 27.054634
C 6.448164 -2.095135 25.824878
C 6.742859 -0.708703 25.824878
C 6.780001 0.000000 27.054634
C 6.631841 1.409641 27.054634
C 6.448164 2.095135 28.284390
C 5.871653 3.390000 28.284390
C 5.485136 3.985184 27.054634
C 4.536706 5.038522 29.514146
C 3.985184 5.485136 28.284390
C 2.757675 6.193839 28.284390
C 2.095135 6.448164 27.054634
C 0.708703 6.742859 29.514146
C 0.000000 6.780001 28.284390
C -1.409641 6.631841 28.284390
C -2.095135 6.448164 27.054634
C -3.390000 5.871653 29.514146
C -3.985184 5.485136 28.284390
C -5.038522 4.536706 28.284390
C -5.485136 3.985184 27.054634
C -6.193839 2.757675 29.514146
C -6.448164 2.095135 28.284390
C -6.742859 0.708703 28.284390
C -6.780001 0.000000 27.054634
C -6.631841 -1.409641 29.514146
C -6.448164 -2.095135 28.284390
C -5.871653 -3.390000 28.284390
C -5.485136 -3.985184 27.054634
C -4.536706 -5.038522 29.514146
C -3.985184 -5.485136 28.284390
C -2.757675 -6.193839 28.284390
C -2.095135 -6.448164 27.054634
C -0.708703 -6.742859 29.514146
C -0.000000 -6.780001 28.284390
C 1.409641 -6.631841 28.284390
C 2.095135 -6.448164 27.054634
C 3.390000 -5.871653 29.514146
C 3.985184 -5.485136 28.284390
C 5.038522 -4.536706 28.284390
C 5.485136 -3.985184 27.054634
C 6.193839 -2.757675 29.514146
C 6.448164 -2.095135 28.284390
C 6.742859 -0.708703 28.284390
C 6.780001 0.000000 29.514146
C 6.631841 1.409641 29.514146
C 6.448164 2.095135 30.743902
C 5.871653 3.390000 30.743902
C 5.485136 3.985184 29.514146
C 4.536706 5.038522 31.973658
C 3.985184 5.485136 30.743902
C 2.757675 6.193839 30.743902
C 2.095135 6.448164 29.514146
C 0.708703 6.742859 31.973658
C 0.000000 6.780001 30.743902
C -1.409641 6.631841 30.743902
C -2.095135 6.448164 29.514146
C -3.390000 5.871653 31.973658
C -3.985184 5.485136 30.743902
C -5.038522 4.536706 30.743902
C -5.485136 3.985184 29.514146
C -6.193839 2.757675 31.973658
C -6.448164 2.095135 30.743902
C -6.742859 0.708703 30.743902
C -6.780001 0.000000 29.514146
C -6.631841 -1.409641 31.973658
C -6.448164 -2.095135 30.743902
C -5.871653 -3.390000 30.743902
C -5.485136 -3.985184 29.514146
C -4.536706 -5.038522 31.973658
C -3.985184 -5.485136 30.743902
C -2.757675 -6.193839 30.743902
C -2.095135 -6.448164 29.514146
C -0.708703 -6.742859 31.973658
C -0.000000 -6.780001 30.743902
C 1.409641 -6.631841 30.743902
C 2.095135 -6.448164 29.514146
C 3.390000 -5.871653 31.973658
C 3.985184 -5.485136 30.743902
C 5.038522 -4.536706 30.743902
C 5.485136 -3.985184 29.514146
C 6.193839 -2.757675 31.973658
C 6.448164 -2.095135 30.743902
C 6.742859 -0.708703 30.743902
C 6.780001 0.000000 31.973658
C 6.631841 1.409641 31.973658
C 6.448164 2.095135 33.203414
C 5.871653 3.390000 33.203414
C 5.485136 3.985184 31.973658
C 4.536706 5.038522 34.433170
C 3.985184 5.485136 33.203414
C 2.757675 6.193839 33.203414
C 2.095135 6.448164 31.973658
C 0.708703 6.742859 34.433170
C 0.000000 6.780001 33.203414
C -1.409641 6.631841 33.203414
C -2.095135 6.448164 31.973658
C -3.390000 5.871653 34.433170
C -3.985184 5.485136 33.203414
C -5.038522 4.536706 33.203414
C -5.485136 3.985184 31.973658
C -6.193839 2.757675 34.433170
C -6.448164 2.095135 33.203414
C -6.742859 0.708703 33.203414
C -6.780001 0.000000 31.973658
C -6.631841 -1.409641 34.433170
C -6.448164 -2.095135 33.203414
C -5.871653 -3.390000 33.203414
C -5.485136 -3.985184 31.973658
C -4.536706 -5.038522 34.433170
C -3.985184 -5.485136 33.203414
C -2.757675 -6.193839 33.203414
C -2.095135 -6.448164 31.973658
C -0.708703 -6.742859 34.433170
C -0.000000 -6.780001 33.203414
C 1.409641 -6.631841 33.203414
C 2.095135 -6.448164 31.973658
C 3.390000 -5.871653 34.433170
C 3.985184 -5.485136 33.203414
C 5.038522 -4.536706 33.203414
C 5.485136 -3.985184 31.973658
C 6.193839 -2.757675 34.433170
C 6.448164 -2.095135 33.203414
C 6.742859 -0.708703 33.203414
C 6.780001 0.000000 34.433170
C 6.631841 1.409641 34.433170
C 6.448164 2.095135 35.662926
C 5.871653 3.390000 35.662926
C 5.485136 3.985184 34.433170
C 4.536706 5.038522 36.892682
C 3.985184 5.485136 35.662926
C 2.757675 6.193839 35.662926
C 2.095135 6.448164 34.433170
C 0.708703 6.742859 36.892682
C 0.000000 6.780001 35.662926
C -1.409641 6.631841 35.662926
C -2.095135 6.448164 34.433170
C -3.390000 5.871653 36.892682
C -3.985184 5.485136 35.662926
C -5.038522 4.536706 35.662926
C -5.485136 3.985184 34.433170
C -6.193839 2.757675 36.892682
C -6.448164 2.095135 35.662926
C -6.742859 0.708703 35.662926
C -6.780001 0.000000 34.433170
C -6.631841 -1.409641 36.892682
C -6.448164 -2.095135 35.662926
C -5.871653 -3.390000 35.662926
C -5.485136 -3.985184 34.433170
C -4.536706 -5.038522 36.892682
C -3.985184 -5.485136 35.662926
C -2.757675 -6.193839 35.662926
C -2.095135 -6.448164 34.433170
C -0.708703 -6.742859 36.892682
C -0.000000 -6.780001 35.662926
C 1.409641 -6.631841 35.662926
C 2.095135 -6.448164 34.433170
C 3.390000 -5.871653 36.892682
C 3.985184 -5.485136 35.662926
C 5.038522 -4.536706 35.662926
C 5.485136 -3.985184 34.433170
C 6.193839 -2.757675 36.892682
C 6.448164 -2.095135 35.662926
C 6.742859 -0.708703 35.662926
C 6.780001 0.000000 36.892682
C 6.631841 1.409641 36.892682
C 6.448164 2.095135 38.122438
C 5.871653 3.390000 38.122438
C 5.485136 3.985184 36.892682
C 4.536706 5.038522 39.352194
C 3.985184 5.485136 38.122438
C 2.757675 6.193839 38.122438
C 2.095135 6.448164 36.892682
C 0.708703 6.742859 39.352194
C 0.000000 6.780001 38.122438
C -1.409641 6.631841 38.122438
C -2.095135 6.448164 36.892682
C -3.390000 5.871653 39.352194
C -3.985184 5.485136 38.122438
C -5.038522 4.536706 38.122438
C -5.485136 3.985184 36.892682
C -6.193839 2.757675 39.352194
C -6.448164 2.095135 38.122438
C -6.742859 0.708703 38.122438
C -6.780001 0.000000 36.892682
C -6.631841 -1.409641 39.352194
C -6.448164 -2.095135 38.122438
C -5.871653 -3.390000 38.122438
C -5.485136 -3.985184 36.892682
C -4.536706 -5.038522 39.352194
C -3.985184 -5.485136 38.122438
C -2.757675 -6.193839 38.122438
C -2.095135 -6.448164 36.892682
C -0.708703 -6.742859 39.352194
C -0.000000 -6.780001 38.122438
C 1.409641 -6.631841 38.122438
C 2.095135 -6.448164 36.892682
C 3.390000 -5.871653 39.352194
C 3.985184 -5.485136 38.122438
C 5.038522 -4.536706 38.122438
C 5.485136 -3.985184 36.892682
C 6.193839 -2.757675 39.352194
C 6.448164 -2.095135 38.122438
C 6.742859 -0.708703 38.122438
C 6.780001 0.000000 39.352194
C 6.631841 1.409641 39.352194
C 6.448164 2.095135 40.581950
C 5.871653 3.390000 40.581950
C 5.485136 3.985184 39.352194
C 4.536706 5.038522 41.811706
C 3.985184 5.485136 40.581950
C 2.757675 6.193839 40.581950
C 2.095135 6.448164 39.352194
C 0.708703 6.742859 41.811706
C 0.000000 6.780001 40.581950
C -1.409641 6.631841 40.581950
C -2.095135 6.448164 39.352194
C -3.390000 5.871653 41.811706
C -3.985184 5.485136 40.581950
C -5.038522 4.536706 40.581950
C -5.485136 3.985184 39.352194
C -6.193839 2.757675 41.811706
C -6.448164 2.095135 40.581950
C -6.742859 0.708703 40.581950
C -6.780001 0.000000 39.352194
C -6.631841 -1.409641 41.811706
C -6.448164 -2.095135 40.581950
C -5.871653 -3.390000 40.581950
C -5.485136 -3.985184 39.352194
C -4.536706 -5.038522 41.811706
C -3.985184 -5.485136 40.581950
C -2.757675 -6.193839 40.581950
C -2.095135 -6.448164 39.352194
C -0.708703 -6.742859 41.811706
C -0.000000 -6.780001 40.581950
C 1.409641 -6.631841 40.581950
C 2.095135 -6.448164 39.352194
C 3.390000 -5.871653 41.811706
C 3.985184 -5.485136 40.581950
C 5.038522 -4.536706 40.581950
C 5.485136 -3.985184 39.352194
C 6.193839 -2.757675 41.811706
C 6.448164 -2.095135 40.581950
C 6.742859 -0.708703 40.581950
C 6.780001 0.000000 41.811706
C 6.631841 1.409641 41.811706
C 6.448164 2.095135 43.041463
C 5.871653 3.390000 43.041463
C 5.485136 3.985184 41.811706
C 4.536706 5.038522 44.271219
C 3.985184 5.485136 43.041463
C 2.757675 6.193839 43.041463
C 2.095135 6.448164 41.811706
C 0.708703 6.742859 44.271219
C 0.000000 6.780001 43.041463
C -1.409641 6.631841 43.041463
C -2.095135 6.448164 41.811706
C -3.390000 5.871653 44.271219
C -3.985184 5.485136 43.041463
C -5.038522 4.536706 43.041463
C -5.485136 3.985184 41.811706
C -6.193839 2.757675 44.271219
C -6.448164 2.095135 43.041463
C -6.742859 0.708703 43.041463
C -6.780001 0.000000 41.811706
C -6.631841 -1.409641 44.271219
C -6.448164 -2.095135 43.041463
C -5.871653 -3.390000 43.041463
C -5.485136 -3.985184 41.811706
C -4.536706 -5.038522 44.271219
C -3.985184 -5.485136 43.041463
C -2.757675 -6.193839 43.041463
C -2.095135 -6.448164 41.811706
C -0.708703 -6.742859 44.271219
C -0.000000 -6.780001 43.041463
C 1.409641 -6.631841 43.041463
C 2.095135 -6.448164 41.811706
C 3.390000 -5.871653 44.271219
C 3.985184 -5.485136 43.041463
C 5.038522 -4.536706 43.041463
C 5.485136 -3.985184 41.811706
C 6.193839 -2.757675 44.271219
C 6.448164 -2.095135 43.041463
C 6.742859 -0.708703 43.041463
C 6.780001 0.000000 44.271219
C 6.631841 1.409641 44.271219
C 6.448164 2.095135 45.500975
C 5.871653 3.390000 45.500975
C 5.485136 3.985184 44.271219
C 4.536706 5.038522 46.730731
C 3.985184 5.485136 45.500975
C 2.757675 6.193839 45.500975
C 2.095135 6.448164 44.271219
C 0.708703 6.742859 46.730731
C 0.000000 6.780001 45.500975
C -1.409641 6.631841 45.500975
C -2.095135 6.448164 44.271219
C -3.390000 5.871653 46.730731
C -3.985184 5.485136 45.500975
C -5.038522 4.536706 45.500975
C -5.485136 3.985184 44.271219
C -6.193839 2.757675 46.730731
C -6.448164 2.095135 45.500975
C -6.742859 0.708703 45.500975
C -6.780001 0.000000 44.271219
C -6.631841 -1.409641 46.730731
C -6.448164 -2.095135 45.500975
C -5.871653 -3.390000 45.500975
C -5.485136 -3.985184 44.271219
C -4.536706 -5.038522 46.730731
C -3.985184 -5.485136 45.500975
C -2.757675 -6.193839 45.500975
C -2.095135 -6.448164 44.271219
C -0.708703 -6.742859 46.730731
C -0.000000 -6.780001 45.500975
C 1.409641 -6.631841 45.500975
C 2.095135 -6.448164 44.271219
C 3.390000 -5.871653 46.730731
C 3.985184 -5.485136 45.500975
C 5.038522 -4.536706 45.500975
C 5.485136 -3.985184 44.271219
C 6.193839 -2.757675 46.730731
C 6.448164 -2.095135 45.500975
C 6.742859 -0.708703 45.500975
C 6.780001 0.000000 46.730731
C 6.631841 1.409641 46.730731
C 6.448164 2.095135 47.960487
C 5.871653 3.390000 47.960487
C 5.485136 3.985184 46.730731
C 4.536706 5.038522 49.190243
C 3.985184 5.485136 47.960487
C 2.757675 6.193839 47.960487
C 2.095135 6.448164 46.730731
C 0.708703 6.742859 49.190243
C 0.000000 6.780001 47.960487
C -1.409641 6.631841 47.960487
C -2.095135 6.448164 46.730731
C -3.390000 5.871653 49.190243
C -3.985184 5.485136 47.960487
C -5.038522 4.536706 47.960487
C -5.485136 3.985184 46.730731
C -6.193839 2.757675 49.190243
C -6.448164 2.095135 47.960487
C -6.742859 0.708703 47.960487
C -6.780001 0.000000 46.730731
C -6.631841 -1.409641 49.190243
C -6.448164 -2.095135 47.960487
C -5.871653 -3.390000 47.960487
C -5.485136 -3.985184 46.730731
C -4.536706 -5.038522 49.190243
C -3.985184 -5.485136 47.960487
C -2.757675 -6.193839 47.960487
C -2.095135 -6.448164 46.730731
C -0.708703 -6.742859 49.190243
C -0.000000 -6.780001 47.960487
C 1.409641 -6.631841 47.960487
C 2.095135 -6.448164 46.730731
C 3.390000 -5.871653 49.190243
C 3.985184 -5.485136 47.960487
C 5.038522 -4.536706 47.960487
C 5.485136 -3.985184 46.730731
C 6.193839 -2.757675 49.190243
C 6.448164 -2.095135 47.960487
C 6.742859 -0.708703 47.960487
C 6.780001 0.000000 49.190243
C 6.631841 1.409641 49.190243
C 6.448164 2.095135 50.419999
C 5.871653 3.390000 50.419999
C 5.485136 3.985184 49.190243
C 4.536706 5.038522 51.649755
C 3.985184 5.485136 50.419999
C 2.757675 6.193839 50.419999
C 2.095135 6.448164 49.190243
C 0.708703 6.742859 51.649755
C 0.000000 6.780001 50.419999
C -1.409641 6.631841 50.419999
C -2.095135 6.448164 49.190243
C -3.390000 5.871653 51.649755
C -3.985184 5.485136 50.419999
C -5.038522 4.536706 50.419999
C -5.485136 3.985184 49.190243
C -6.193839 2.757675 51.649755
C -6.448164 2.095135 50.419999
C -6.742859 0.708703 50.419999
C -6.780001 0.000000 49.190243
C -6.631841 -1.409641 51.649755
C -6.448164 -2.095135 50.419999
C -5.871653 -3.390000 50.419999
C -5.485136 -3.985184 49.190243
C -4.536706 -5.038522 51.649755
C -3.985184 -5.485136 50.419999
C -2.757675 -6.193839 50.419999
C -2.095135 -6.448164 49.190243
C -0.708703 -6.742859 51.649755
C -0.000000 -6.780001 50.419999
C 1.409641 -6.631841 50.419999
C 2.095135 -6.448164 49.190243
C 3.390000 -5.871653 51.649755
C 3.985184 -5.485136 50.419999
C 5.038522 -4.536706 50.419999
C 5.485136 -3.985184 49.190243
C 6.193839 -2.757675 51.649755
C 6.448164 -2.095135 50.419999
C 6.742859 -0.708703 50.419999
C 6.780001 0.000000 51.649755
C 6.631841 1.409641 51.649755
C 6.448164 2.095135 52.879511
C 5.871653 3.390000 52.879511
C 5.485136 3.985184 51.649755
C 4.536706 5.038522 54.109267
C 3.985184 5.485136 52.879511
C 2.757675 6.193839 52.879511
C 2.095135 6.448164 51.649755
C 0.708703 6.742859 54.109267
C 0.000000 6.780001 52.879511
C -1.409641 6.631841 52.879511
C -2.095135 6.448164 51.649755
C -3.390000 5.871653 54.109267
C -3.985184 5.485136 52.879511
C -5.038522 4.536706 52.879511
C -5.485136 3.985184 51.649755
C -6.193839 2.757675 54.109267
C -6.448164 2.095135 52.879511
C -6.742859 0.708703 52.879511
C -6.780001 0.000000 51.649755
C -6.631841 -1.409641 54.109267
C -6.448164 -2.095135 52.879511
C -5.871653 -3.390000 52.879511
C -5.485136 -3.985184 51.649755
C -4.536706 -5.038522 54.109267
C -3.985184 -5.485136 52.879511
C -2.757675 -6.193839 52.879511
C -2.095135 -6.448164 51.649755
C -0.708703 -6.742859 54.109267
C -0.000000 -6.780001 52.879511
C 1.409641 -6.631841 52.879511
C 2.095135 -6.448164 51.649755
C 3.390000 -5.871653 54.109267
C 3.985184 -5.485136 52.879511
C 5.038522 -4.536706 52.879511
C 5.485136 -3.985184 51.649755
C 6.193839 -2.757675 54.109267
C 6.448164 -2.095135 52.879511
C 6.742859 -0.708703 52.879511
C 6.780001 0.000000 54.109267
C 6.631841 1.409641 54.109267
C 6.448164 2.095135 55.339023
C 5.871653 3.390000 55.339023
C 5.485136 3.985184 54.109267
C 4.536706 5.038522 56.568779
C 3.985184 5.485136 55.339023
C 2.757675 6.193839 55.339023
C 2.095135 6.448164 54.109267
C 0.708703 6.742859 56.568779
C 0.000000 6.780001 55.339023
C -1.409641 6.631841 55.339023
C -2.095135 6.448164 54.109267
C -3.390000 5.871653 56.568779
C -3.985184 5.485136 55.339023
C -5.038522 4.536706 55.339023
C -5.485136 3.985184 54.109267
C -6.193839 2.757675 56.568779
C -6.448164 2.095135 55.339023
C -6.742859 0.708703 55.339023
C -6.780001 0.000000 54.109267
C -6.631841 -1.409641 56.568779
C -6.448164 -2.095135 55.339023
C -5.871653 -3.390000 55.339023
C -5.485136 -3.985184 54.109267
C -4.536706 -5.038522 56.568779
C -3.985184 -5.485136 55.339023
C -2.757675 -6.193839 55.339023
C -2.095135 -6.448164 54.109267
C -0.708703 -6.742859 56.568779
C -0.000000 -6.780001 55.339023
C 1.409641 -6.631841 55.339023
C 2.095135 -6.448164 54.109267
C 3.390000 -5.871653 56.568779
C 3.985184 -5.485136 55.339023
C 5.038522 -4.536706 55.339023
C 5.485136 -3.985184 54.109267
C 6.193839 -2.757675 56.568779
C 6.448164 -2.095135 55.339023
C 6.742859 -0.708703 55.339023
C 6.780001 0.000000 56.568779
C 6.631841 1.409641 56.568779
C 6.448164 2.095135 57.798535
C 5.871653 3.390000 57.798535
C 5.485136 3.985184 56.568779
C 4.536706 5.038522 59.028292
C 3.985184 5.485136 57.798535
C 2.757675 6.193839 57.798535
C 2.095135 6.448164 56.568779
C 0.708703 6.742859 59.028292
C 0.000000 6.780001 57.798535
C -1.409641 6.631841 57.798535
C -2.095135 6.448164 56.568779
C -3.390000 5.871653 59.028292
C -3.985184 5.485136 57.798535
C -5.038522 4.536706 57.798535
C -5.485136 3.985184 56.568779
C -6.193839 2.757675 59.028292
C -6.448164 2.095135 57.798535
C -6.742859 0.708703 57.798535
C -6.780001 0.000000 56.568779
C -6.631841 -1.409641 59.028292
C -6.448164 -2.095135 57.798535
C -5.871653 -3.390000 57.798535
C -5.485136 -3.985184 56.568779
C -4.536706 -5.038522 59.028292
C -3.985184 -5.485136 57.798535
C -2.757675 -6.193839 57.798535
C -2.095135 -6.448164 56.568779
C -0.708703 -6.742859 59.028292
C -0.000000 -6.780001 57.798535
C 1.409641 -6.631841 57.798535
C 2.095135 -6.448164 56.568779
C 3.390000 -5.871653 59.028292
C 3.985184 -5.485136 57.798535
C 5.038522 -4.536706 57.798535
C 5.485136 -3.985184 56.568779
C 6.193839 -2.757675 59.028292
C 6.448164 -2.095135 57.798535
C 6.742859 -0.708703 57.798535
C 6.780001 0.000000 59.028292
C 6.631841 1.409641 59.028292
C 6.448164 2.095135 60.258048
C 5.871653 3.390000 60.258048
C 5.485136 3.985184 59.028292
C 4.536706 5.038522 61.487804
C 3.985184 5.485136 60.258048
C 2.757675 6.193839 60.258048
C 2.095135 6.448164 59.028292
C 0.708703 6.742859 61.487804
C 0.000000 6.780001 60.258048
C -1.409641 6.631841 60.258048
C -2.095135 6.448164 59.028292
C -3.390000 5.871653 61.487804
C -3.985184 5.485136 60.258048
C -5.038522 4.536706 60.258048
C -5.485136 3.985184 59.028292
C -6.193839 2.757675 61.487804
C -6.448164 2.095135 60.258048
C -6.742859 0.708703 60.258048
C -6.780001 0.000000 59.028292
C -6.631841 -1.409641 61.487804
C -6.448164 -2.095135 60.258048
C -5.871653 -3.390000 60.258048
C -5.485136 -3.985184 59.028292
C -4.536706 -5.038522 61.487804
C -3.985184 -5.485136 60.258048
C -2.757675 -6.193839 60.258048
C -2.095135 -6.448164 59.028292
C -0.708703 -6.742859 61.487804
C -0.000000 -6.780001 60.258048
C 1.409641 -6.631841 60.258048
C 2.095135 -6.448164 59.028292
C 3.390000 -5.871653 61.487804
C 3.985184 -5.485136 60.258048
C 5.038522 -4.536706 60.258048
C 5.485136 -3.985184 59.028292
C 6.193839 -2.757675 61.487804
C 6.448164 -2.095135 60.258048
C 6.742859 -0.708703 60.258048
C 6.780001 0.000000 61.487804
C 6.631841 1.409641 61.487804
C 6.448164 2.095135 62.717560
C 5.871653 3.390000 62.717560
C 5.485136 3.985184 61.487804
C 4.536706 5.038522 63.947316
C 3.985184 5.485136 62.717560
C 2.757675 6.193839 62.717560
C 2.095135 6.448164 61.487804
C 0.708703 6.742859 63.947316
C 0.000000 6.780001 62.717560
C -1.409641 6.631841 62.717560
C -2.095135 6.448164 61.487804
C -3.390000 5.871653 63.947316
C -3.985184 5.485136 62.717560
C -5.038522 4.536706 62.717560
C -5.485136 3.985184 61.487804
C -6.193839 2.757675 63.947316
C -6.448164 2.095135 62.717560
C -6.742859 0.708703 62.717560
C -6.780001 0.000000 61.487804
C -6.631841 -1.409641 63.947316
C -6.448164 -2.095135 62.717560
C -5.871653 -3.390000 62.717560
C -5.485136 -3.985184 61.487804
C -4.536706 -5.038522 63.947316
C -3.985184 -5.485136 62.717560
C -2.757675 -6.193839 62.717560
C -2.095135 -6.448164 61.487804
C -0.708703 -6.742859 63.947316
C -0.000000 -6.780001 62.717560
C 1.409641 -6.631841 62.717560
C 2.095135 -6.448164 61.487804
C 3.390000 -5.871653 63.947316
C 3.985184 -5.485136 62.717560
C 5.038522 -4.536706 62.717560
C 5.485136 -3.985184 61.487804
C 6.193839 -2.757675 63.947316
C 6.448164 -2.095135 62.717560
C 6.742859 -0.708703 62.717560
C 6.780001 0.000000 63.947316
C 6.631841 1.409641 63.947316
C 6.448164 2.095135 65.177072
C 5.871653 3.390000 65.177072
C 5.485136 3.985184 63.947316
C 4.536706 5.038522 66.406828
C 3.985184 5.485136 65.177072
C 2.757675 6.193839 65.177072
C 2.095135 6.448164 63.947316
C 0.708703 6.742859 66.406828
C 0.000000 6.780001 65.177072
C -1.409641 6.631841 65.177072
C -2.095135 6.448164 63.947316
C -3.390000 5.871653 66.406828
C -3.985184 5.485136 65.177072
C -5.038522 4.536706 65.177072
C -5.485136 3.985184 63.947316
C -6.193839 2.757675 66.406828
C -6.448164 2.095135 65.177072
C -6.742859 0.708703 65.177072
C -6.780001 0.000000 63.947316
C -6.631841 -1.409641 66.406828
C -6.448164 -2.095135 65.177072
C -5.871653 -3.390000 65.177072
C -5.485136 -3.985184 63.947316
C -4.536706 -5.038522 66.406828
C -3.985184 -5.485136 65.177072
C -2.757675 -6.193839 65.177072
C -2.095135 -6.448164 63.947316
C -0.708703 -6.742859 66.406828
C -0.000000 -6.780001 65.177072
C 1.409641 -6.631841 65.177072
C 2.095135 -6.448164 63.947316
C 3.390000 -5.871653 66.406828
C 3.985184 -5.485136 65.177072
C 5.038522 -4.536706 65.177072
C 5.485136 -3.985184 63.947316
C 6.193839 -2.757675 66.406828
C 6.448164 -2.095135 65.177072
C 6.742859 -0.708703 65.177072
C 6.780001 0.000000 66.406828
C 6.631841 1.409641 66.406828
C 6.448164 2.095135 67.636584
C 5.871653 3.390000 67.636584
C 5.485136 3.985184 66.406828
C 4.536706 5.038522 68.866340
C 3.985184 5.485136 67.636584
C 2.757675 6.193839 67.636584
C 2.095135 6.448164 66.406828
C 0.708703 6.742859 68.866340
C 0.000000 6.780001 67.636584
C -1.409641 6.631841 67.636584
C -2.095135 6.448164 66.406828
C -3.390000 5.871653 68.866340
C -3.985184 5.485136 67.636584
C -5.038522 4.536706 67.636584
C -5.485136 3.985184 66.406828
C -6.193839 2.757675 68.866340
C -6.448164 2.095135 67.636584
C -6.742859 0.708703 67.636584
C -6.780001 0.000000 66.406828
C -6.631841 -1.409641 68.866340
C -6.448164 -2.095135 67.636584
C -5.871653 -3.390000 67.636584
C -5.485136 -3.985184 66.406828
C -4.536706 -5.038522 68.866340
C -3.985184 -5.485136 67.636584
C -2.757675 -6.193839 67.636584
C -2.095135 -6.448164 66.406828
C -0.708703 -6.742859 68.866340
C -0.000000 -6.780001 67.636584
C 1.409641 -6.631841 67.636584
C 2.095135 -6.448164 66.406828
C 3.390000 -5.871653 68.866340
C 3.985184 -5.485136 67.636584
C 5.038522 -4.536706 67.636584
C 5.485136 -3.985184 66.406828
C 6.193839 -2.757675 68.866340
C 6.448164 -2.095135 67.636584
C 6.742859 -0.708703 67.636584
C 6.780001 0.000000 68.866340
C 6.631841 1.409641 68.866340
C 6.448164 2.095135 70.096096
C 5.871653 3.390000 70.096096
C 5.485136 3.985184 68.866340
C 4.536706 5.038522 71.325852
C 3.985184 5.485136 70.096096
C 2.757675 6.193839 70.096096
C 2.095135 6.448164 68.866340
C 0.708703 6.742859 71.325852
C 0.000000 6.780001 70.096096
C -1.409641 6.631841 70.096096
C -2.095135 6.448164 68.866340
C -3.390000 5.871653 71.325852
C -3.985184 5.485136 70.096096
C -5.038522 4.536706 70.096096
C -5.485136 3.985184 68.866340
C -6.193839 2.757675 71.325852
C -6.448164 2.095135 70.096096
C -6.742859 0.708703 70.096096
C -6.780001 0.000000 68.866340
C -6.631841 -1.409641 71.325852
C -6.448164 -2.095135 70.096096
C -5.871653 -3.390000 70.096096
C -5.485136 -3.985184 68.866340
C -4.536706 -5.038522 71.325852
C -3.985184 -5.485136 70.096096
C -2.757675 -6.193839 70.096096
C -2.095135 -6.448164 68.866340
C -0.708703 -6.742859 71.325852
C -0.000000 -6.780001 70.096096
C 1.409641 -6.631841 70.096096
C 2.095135 -6.448164 68.866340
C 3.390000 -5.871653 71.325852
C 3.985184 -5.485136 70.096096
C 5.038522 -4.536706 70.096096
C 5.485136 -3.985184 68.866340
C 6.193839 -2.757675 71.325852
C 6.448164 -2.095135 70.096096
C 6.742859 -0.708703 70.096096
C 6.780001 0.000000 71.325852
C 6.631841 1.409641 71.325852
C 6.448164 2.095135 72.555608
C 5.871653 3.390000 72.555608
C 5.485136 3.985184 71.325852
C 4.536706 5.038522 73.785364
C 3.985184 5.485136 72.555608
C 2.757675 6.193839 72.555608
C 2.095135 6.448164 71.325852
C 0.708703 6.742859 73.785364
C 0.000000 6.780001 72.555608
C -1.409641 6.631841 72.555608
C -2.095135 6.448164 71.325852
C -3.390000 5.871653 73.785364
C -3.985184 5.485136 72.555608
C -5.038522 4.536706 72.555608
C -5.485136 3.985184 71.325852
C -6.193839 2.757675 73.785364
C -6.448164 2.095135 72.555608
C -6.742859 0.708703 72.555608
C -6.780001 0.000000 71.325852
C -6.631841 -1.409641 73.785364
C -6.448164 -2.095135 72.555608
C -5.871653 -3.390000 72.555608
C -5.485136 -3.985184 71.325852
C -4.536706 -5.038522 73.785364
C -3.985184 -5.485136 72.555608
C -2.757675 -6.193839 72.555608
C -2.095135 -6.448164 71.325852
C -0.708703 -6.742859 73.785364
C -0.000000 -6.780001 72.555608
C 1.409641 -6.631841 72.555608
C 2.095135 -6.448164 71.325852
C 3.390000 -5.871653 73.785364
C 3.985184 -5.485136 72.555608
C 5.038522 -4.536706 72.555608
C 5.485136 -3.985184 71.325852
C 6.193839 -2.757675 73.785364
C 6.448164 -2.095135 72.555608
C 6.742859 -0.708703 72.555608
C 6.780001 0.000000 73.785364
C 6.631841 1.409641 73.785364
C 6.448164 2.095135 75.015120
C 5.871653 3.390000 75.015120
C 5.485136 3.985184 73.785364
C 4.536706 5.038522 76.244877
C 3.985184 5.485136 75.015120
C 2.757675 6.193839 75.015120
C 2.095135 6.448164 73.785364
C 0.708703 6.742859 76.244877
C 0.000000 6.780001 75.015120
C -1.409641 6.631841 75.015120
C -2.095135 6.448164 73.785364
C -3.390000 5.871653 76.244877
C -3.985184 5.485136 75.015120
C -5.038522 4.536706 75.015120
C -5.485136 3.985184 73.785364
C -6.193839 2.757675 76.244877
C -6.448164 2.095135 75.015120
C -6.742859 0.708703 75.015120
C -6.780001 0.000000 73.785364
C -6.631841 -1.409641 76.244877
C -6.448164 -2.095135 75.015120
C -5.871653 -3.390000 75.015120
C -5.485136 -3.985184 73.785364
C -4.536706 -5.038522 76.244877
C -3.985184 -5.485136 75.015120
C -2.757675 -6.193839 75.015120
C -2.095135 -6.448164 73.785364
C -0.708703 -6.742859 76.244877
C -0.000000 -6.780001 75.015120
C 1.409641 -6.631841 75.015120
C 2.095135 -6.448164 73.785364
C 3.390000 -5.871653 76.244877
C 3.985184 -5.485136 75.015120
C 5.038522 -4.536706 75.015120
C 5.485136 -3.985184 73.785364
C 6.193839 -2.757675 76.244877
C 6.448164 -2.095135 75.015120
C 6.742859 -0.708703 75.015120
C 6.780001 0.000000 76.244877
C 6.631841 1.409641 76.244877
C 6.448164 2.095135 77.474633
C 5.871653 3.390000 77.474633
C 5.485136 3.985184 76.244877
C 4.536706 5.038522 78.704389
C 3.985184 5.485136 77.474633
C 2.757675 6.193839 77.474633
C 2.095135 6.448164 76.244877
C 0.708703 6.742859 78.704389
C 0.000000 6.780001 77.474633
C -1.409641 6.631841 77.474633
C -2.095135 6.448164 76.244877
C -3.390000 5.871653 78.704389
C -3.985184 5.485136 77.474633
C -5.038522 4.536706 77.474633
C -5.485136 3.985184 76.244877
C -6.193839 2.757675 78.704389
C -6.448164 2.095135 77.474633
C -6.742859 0.708703 77.474633
C -6.780001 0.000000 76.244877
C -6.631841 -1.409641 78.704389
C -6.448164 -2.095135 77.474633
C -5.871653 -3.390000 77.474633
C -5.485136 -3.985184 76.244877
C -4.536706 -5.038522 78.704389
C -3.985184 -5.485136 77.474633
C -2.757675 -6.193839 77.474633
C -2.095135 -6.448164 76.244877
C -0.708703 -6.742859 78.704389
C -0.000000 -6.780001 77.474633
C 1.409641 -6.631841 77.474633
C 2.095135 -6.448164 76.244877
C 3.390000 -5.871653 78.704389
C 3.985184 -5.485136 77.474633
C 5.038522 -4.536706 77.474633
C 5.485136 -3.985184 76.244877
C 6.193839 -2.757675 78.704389
C 6.448164 -2.095135 77.474633
C 6.742859 -0.708703 77.474633
C 6.780001 0.000000 78.704389
C 6.631841 1.409641 78.704389
C 6.448164 2.095135 79.934145
C 5.871653 3.390000 79.934145
C 5.485136 3.985184 78.704389
C 4.536706 5.038522 81.163901
C 3.985184 5.485136 79.934145
C 2.757675 6.193839 79.934145
C 2.095135 6.448164 78.704389
C 0.708703 6.742859 81.163901
C 0.000000 6.780001 79.934145
C -1.409641 6.631841 79.934145
C -2.095135 6.448164 78.704389
C -3.390000 5.871653 81.163901
C -3.985184 5.485136 79.934145
C -5.038522 4.536706 79.934145
C -5.485136 3.985184 78.704389
C -6.193839 2.757675 81.163901
C -6.448164 2.095135 79.934145
C -6.742859 0.708703 79.934145
C -6.780001 0.000000 78.704389
C -6.631841 -1.409641 81.163901
C -6.448164 -2.095135 79.934145
C -5.871653 -3.390000 79.934145
C -5.485136 -3.985184 78.704389
C -4.536706 -5.038522 81.163901
C -3.985184 -5.485136 79.934145
C -2.757675 -6.193839 79.934145
C -2.095135 -6.448164 78.704389
C -0.708703 -6.742859 81.163901
C -0.000000 -6.780001 79.934145
C 1.409641 -6.631841 79.934145
C 2.095135 -6.448164 78.704389
C 3.390000 -5.871653 81.163901
C 3.985184 -5.485136 79.934145
C 5.038522 -4.536706 79.934145
C 5.485136 -3.985184 78.704389
C 6.193839 -2.757675 81.163901
C 6.448164 -2.095135 79.934145
C 6.742859 -0.708703 79.934145
C 6.780001 0.000000 81.163901
C 6.631841 1.409641 81.163901
C 6.448164 2.095135 82.393657
C 5.871653 3.390000 82.393657
C 5.485136 3.985184 81.163901
C 4.536706 5.038522 83.623413
C 3.985184 5.485136 82.393657
C 2.757675 6.193839 82.393657
C 2.095135 6.448164 81.163901
C 0.708703 6.742859 83.623413
C 0.000000 6.780001 82.393657
C -1.409641 6.631841 82.393657
C -2.095135 6.448164 81.163901
C -3.390000 5.871653 83.623413
C -3.985184 5.485136 82.393657
C -5.038522 4.536706 82.393657
C -5.485136 3.985184 81.163901
C -6.193839 2.757675 83.623413
C -6.448164 2.095135 82.393657
C -6.742859 0.708703 82.393657
C -6.780001 0.000000 81.163901
C -6.631841 -1.409641 83.623413
C -6.448164 -2.095135 82.393657
C -5.871653 -3.390000 82.393657
C -5.485136 -3.985184 81.163901
C -4.536706 -5.038522 83.623413
C -3.985184 -5.485136 82.393657
C -2.757675 -6.193839 82.393657
C -2.095135 -6.448164 81.163901
C -0.708703 -6.742859 83.623413
C -0.000000 -6.780001 82.393657
C 1.409641 -6.631841 82.393657
C 2.095135 -6.448164 81.163901
C 3.390000 -5.871653 83.623413
C 3.985184 -5.485136 82.393657
C 5.038522 -4.536706 82.393657
C 5.485136 -3.985184 81.163901
C 6.193839 -2.757675 83.623413
C 6.448164 -2.095135 82.393657
C 6.742859 -0.708703 82.393657
C 6.780001 0.000000 83.623413
C 6.631841 1.409641 83.623413
C 6.448164 2.095135 84.853169
C 5.871653 3.390000 84.853169
C 5.485136 3.985184 83.623413
C 4.536706 5.038522 86.082925
C 3.985184 5.485136 84.853169
C 2.757675 6.193839 84.853169
C 2.095135 6.448164 83.623413
C 0.708703 6.742859 86.082925
C 0.000000 6.780001 84.853169
C -1.409641 6.631841 84.853169
C -2.095135 6.448164 83.623413
C -3.390000 5.871653 86.082925
C -3.985184 5.485136 84.853169
C -5.038522 4.536706 84.853169
C -5.485136 3.985184 83.623413
C -6.193839 2.757675 86.082925
C -6.448164 2.095135 84.853169
C -6.742859 0.708703 84.853169
C -6.780001 0.000000 83.623413
C -6.631841 -1.409641 86.082925
C -6.448164 -2.095135 84.853169
C -5.871653 -3.390000 84.853169
C -5.485136 -3.985184 83.623413
C -4.536706 -5.038522 86.082925
C -3.985184 -5.485136 84.853169
C -2.757675 -6.193839 84.853169
C -2.095135 -6.448164 83.623413
C -0.708703 -6.742859 86.082925
C -0.000000 -6.780001 84.853169
C 1.409641 -6.631841 84.853169
C 2.095135 -6.448164 83.623413
C 3.390000 -5.871653 86.082925
C 3.985184 -5.485136 84.853169
C 5.038522 -4.536706 84.853169
C 5.485136 -3.985184 83.623413
C 6.193839 -2.757675 86.082925
C 6.448164 -2.095135 84.853169
C 6.742859 -0.708703 84.853169
C 6.780001 0.000000 86.082925
C 6.631841 1.409641 86.082925
C 6.448164 2.095135 87.312681
C 5.871653 3.390000 87.312681
C 5.485136 3.985184 86.082925
C 4.536706 5.038522 88.542437
C 3.985184 5.485136 87.312681
C 2.757675 6.193839 87.312681
C 2.095135 6.448164 86.082925
C 0.708703 6.742859 88.542437
C 0.000000 6.780001 87.312681
C -1.409641 6.631841 87.312681
C -2.095135 6.448164 86.082925
C -3.390000 5.871653 88.542437
C -3.985184 5.485136 87.312681
C -5.038522 4.536706 87.312681
C -5.485136 3.985184 86.082925
C -6.193839 2.757675 88.542437
C -6.448164 2.095135 87.312681
C -6.742859 0.708703 87.312681
C -6.780001 0.000000 86.082925
C -6.631841 -1.409641 88.542437
C -6.448164 -2.095135 87.312681
C -5.871653 -3.390000 87.312681
C -5.485136 -3.985184 86.082925
C -4.536706 -5.038522 88.542437
C -3.985184 -5.485136 87.312681
C -2.757675 -6.193839 87.312681
C -2.095135 -6.448164 86.082925
C -0.708703 -6.742859 88.542437
C -0.000000 -6.780001 87.312681
C 1.409641 -6.631841 87.312681
C 2.095135 -6.448164 86.082925
C 3.390000 -5.871653 88.542437
C 3.985184 -5.485136 87.312681
C 5.038522 -4.536706 87.312681
C 5.485136 -3.985184 86.082925
C 6.193839 -2.757675 88.542437
C 6.448164 -2.095135 87.312681
C 6.742859 -0.708703 87.312681
C 6.780001 0.000000 88.542437
C 6.631841 1.409641 88.542437
C 6.448164 2.095135 89.772193
C 5.871653 3.390000 89.772193
C 5.485136 3.985184 88.542437
C 4.536706 5.038522 91.001949
C 3.985184 5.485136 89.772193
C 2.757675 6.193839 89.772193
C 2.095135 6.448164 88.542437
C 0.708703 6.742859 91.001949
C 0.000000 6.780001 89.772193
C -1.409641 6.631841 89.772193
C -2.095135 6.448164 88.542437
C -3.390000 5.871653 91.001949
C -3.985184 5.485136 89.772193
C -5.038522 4.536706 89.772193
C -5.485136 3.985184 88.542437
C -6.193839 2.757675 91.001949
C -6.448164 2.095135 89.772193
C -6.742859 0.708703 89.772193
C -6.780001 0.000000 88.542437
C -6.631841 -1.409641 91.001949
C -6.448164 -2.095135 89.772193
C -5.871653 -3.390000 89.772193
C -5.485136 -3.985184 88.542437
C -4.536706 -5.038522 91.001949
C -3.985184 -5.485136 89.772193
C -2.757675 -6.193839 89.772193
C -2.095135 -6.448164 88.542437
C -0.708703 -6.742859 91.001949
C -0.000000 -6.780001 89.772193
C 1.409641 -6.631841 89.772193
C 2.095135 -6.448164 88.542437
C 3.390000 -5.871653 91.001949
C 3.985184 -5.485136 89.772193
C 5.038522 -4.536706 89.772193
C 5.485136 -3.985184 88.542437
C 6.193839 -2.757675 91.001949
C 6.448164 -2.095135 89.772193
C 6.742859 -0.708703 89.772193
C 6.780001 0.000000 91.001949
C 6.631841 1.409641 91.001949
C 6.448164 2.095135 92.231706
C 5.871653 3.390000 92.231706
C 5.485136 3.985184 91.001949
C 4.536706 5.038522 93.461462
C 3.985184 5.485136 92.231706
C 2.757675 6.193839 92.231706
C 2.095135 6.448164 91.001949
C 0.708703 6.742859 93.461462
C 0.000000 6.780001 92.231706
C -1.409641 6.631841 92.231706
C -2.095135 6.448164 91.001949
C -3.390000 5.871653 93.461462
C -3.985184 5.485136 92.231706
C -5.038522 4.536706 92.231706
C -5.485136 3.985184 91.001949
C -6.193839 2.757675 93.461462
C -6.448164 2.095135 92.231706
C -6.742859 0.708703 92.231706
C -6.780001 0.000000 91.001949
C -6.631841 -1.409641 93.461462
C -6.448164 -2.095135 92.231706
C -5.871653 -3.390000 92.231706
C -5.485136 -3.985184 91.001949
C -4.536706 -5.038522 93.461462
C -3.985184 -5.485136 92.231706
C -2.757675 -6.193839 92.231706
C -2.095135 -6.448164 91.001949
C -0.708703 -6.742859 93.461462
C -0.000000 -6.780001 92.231706
C 1.409641 -6.631841 92.231706
C 2.095135 -6.448164 91.001949
C 3.390000 -5.871653 93.461462
C 3.985184 -5.485136 92.231706
C 5.038522 -4.536706 92.231706
C 5.485136 -3.985184 91.001949
C 6.193839 -2.757675 93.461462
C 6.448164 -2.095135 92.231706
C 6.742859 -0.708703 92.231706
C 6.780001 0.000000 93.461462
C 6.631841 1.409641 93.461462
C 6.448164 2.095135 94.691218
C 5.871653 3.390000 94.691218
C 5.485136 3.985184 93.461462
C 4.536706 5.038522 95.920974
C 3.985184 5.485136 94.691218
C 2.757675 6.193839 94.691218
C 2.095135 6.448164 93.461462
C 0.708703 6.742859 95.920974
C 0.000000 6.780001 94.691218
C -1.409641 6.631841 94.691218
C -2.095135 6.448164 93.461462
C -3.390000 5.871653 95.920974
C -3.985184 5.485136 94.691218
C -5.038522 4.536706 94.691218
C -5.485136 3.985184 93.461462
C -6.193839 2.757675 95.920974
C -6.448164 2.095135 94.691218
C -6.742859 0.708703 94.691218
C -6.780001 0.000000 93.461462
C -6.631841 -1.409641 95.920974
C -6.448164 -2.095135 94.691218
C -5.871653 -3.390000 94.691218
C -5.485136 -3.985184 93.461462
C -4.536706 -5.038522 95.920974
C -3.985184 -5.485136 94.691218
C -2.757675 -6.193839 94.691218
C -2.095135 -6.448164 93.461462
C -0.708703 -6.742859 95.920974
C -0.000000 -6.780001 94.691218
C 1.409641 -6.631841 94.691218
C 2.095135 -6.448164 93.461462
C 3.390000 -5.871653 95.920974
C 3.985184 -5.485136 94.691218
C 5.038522 -4.536706 94.691218
C 5.485136 -3.985184 93.461462
C 6.193839 -2.757675 95.920974
C 6.448164 -2.095135 94.691218
C 6.742859 -0.708703 94.691218
C 6.780001 0.000000 95.920974
C 6.631841 1.409641 95.920974
C 6.448164 2.095135 97.150730
C 5.871653 3.390000 97.150730
C 5.485136 3.985184 95.920974
C 4.536706 5.038522 98.380486
C 3.985184 5.485136 97.150730
C 2.757675 6.193839 97.150730
C 2.095135 6.448164 95.920974
C 0.708703 6.742859 98.380486
C 0.000000 6.780001 97.150730
C -1.409641 6.631841 97.150730
C -2.095135 6.448164 95.920974
C -3.390000 5.871653 98.380486
C -3.985184 5.485136 97.150730
C -5.038522 4.536706 97.150730
C -5.485136 3.985184 95.920974
C -6.193839 2.757675 98.380486
C -6.448164 2.095135 97.150730
C -6.742859 0.708703 97.150730
C -6.780001 0.000000 95.920974
C -6.631841 -1.409641 98.380486
C -6.448164 -2.095135 97.150730
C -5.871653 -3.390000 97.150730
C -5.485136 -3.985184 95.920974
C -4.536706 -5.038522 98.380486
C -3.985184 -5.485136 97.150730
C -2.757675 -6.193839 97.150730
C -2.095135 -6.448164 95.920974
C -0.708703 -6.742859 98.380486
C -0.000000 -6.780001 97.150730
C 1.409641 -6.631841 97.150730
C 2.095135 -6.448164 95.920974
C 3.390000 -5.871653 98.380486
C 3.985184 -5.485136 97.150730
C 5.038522 -4.536706 97.150730
C 5.485136 -3.985184 95.920974
C 6.193839 -2.757675 98.380486
C 6.448164 -2.095135 97.150730
C 6.742859 -0.708703 97.150730
