135
Lattice="11.71500000 0.00000000 0.00000000 0.00000000 11.71500000 0.00000000 0.00000000 0.00000000 11.71500000" Properties=species:S:1:pos:R:3
Sr 0.000000 0.000000 0.000000
Ti 1.952500 1.952500 1.952500
O 1.952500 1.952500 0.000000
O 0.000000 1.952500 1.952500
O 1.952500 0.000000 1.952500
Sr 0.000000 0.000000 3.905000
Ti 1.952500 1.952500 5.857500
O 1.952500 1.952500 3.905000
O 0.000000 1.952500 5.857500
O 1.952500 0.000000 5.857500
Sr 0.000000 0.000000 7.810000
Ti 1.952500 1.952500 9.762500
O 1.952500 1.952500 7.810000
O 0.000000 1.952500 9.762500
O 1.952500 0.000000 9.762500
Sr 0.000000 3.905000 0.000000
Ti 1.952500 5.857500 1.952500
O 1.952500 5.857500 0.000000
O 0.000000 5.857500 1.952500
O 1.952500 3.905000 1.952500
Sr 0.000000 3.905000 3.905000
Ti 1.952500 5.857500 5.857500
O 1.952500 5.857500 3.905000
O 0.000000 5.857500 5.857500
O 1.952500 3.905000 5.857500
Sr 0.000000 3.905000 7.810000
Ti 1.952500 5.857500 9.762500
O 1.952500 5.857500 7.810000
O 0.000000 5.857500 9.762500
O 1.952500 3.905000 9.762500
Sr 0.000000 7.810000 0.000000
Ti 1.952500 9.762500 1.952500
O 1.952500 9.762500 0.000000
O 0.000000 9.762500 1.952500
O 1.952500 7.810000 1.952500
Sr 0.000000 7.810000 3.905000
Ti 1.952500 9.762500 5.857500
O 1.952500 9.762500 3.905000
O 0.000000 9.762500 5.857500
O 1.952500 7.810000 5.857500
Sr 0.000000 7.810000 7.810000
Ti 1.952500 9.762500 9.762500
O 1.952500 9.762500 7.810000
O 0.000000 9.762500 9.762500
O 1.952500 7.810000 9.762500
Sr 3.905000 0.000000 0.000000
Ti 5.857500 1.952500 1.952500
O 5.857500 1.952500 0.000000
O 3.905000 1.952500 1.952500
O 5.857500 0.000000 1.952500
Sr 3.905000 0.000000 3.905000
Ti 5.857500 1.952500 5.857500
O 5.857500 1.952500 3.905000
O 3.905000 1.952500 5.857500
O 5.857500 0.000000 5.857500
Sr 3.905000 0.000000 7.810000
Ti 5.857500 1.952500 9.762500
O 5.857500 1.952500 7.810000
O 3.905000 1.952500 9.762500
O 5.857500 0.000000 9.762500
Sr 3.905000 3.905000 0.000000
Ti 5.857500 5.857500 1.952500
O 5.857500 5.857500 0.000000
O 3.905000 5.857500 1.952500
O 5.857500 3.905000 1.952500
Sr 3.905000 3.905000 3.905000
Ti 5.857500 5.857500 5.857500
O 5.857500 5.857500 3.905000
O 3.905000 5.857500 5.857500
O 5.857500 3.905000 5.857500
Sr 3.905000 3.905000 7.810000
Ti 5.857500 5.857500 9.762500
O 5.857500 5.857500 7.810000
O 3.905000 5.857500 9.762500
O 5.857500 3.905000 9.762500
Sr 3.905000 7.810000 0.000000
Ti 5.857500 9.762500 1.952500
O 5.857500 9.762500 0.000000
O 3.905000 9.762500 1.952500
O 5.857500 7.810000 1.952500
Sr 3.905000 7.810000 3.905000
Ti 5.857500 9.762500 5.857500
O 5.857500 9.762500 3.905000
O 3.905000 9.762500 5.857500
O 5.857500 7.810000 5.857500
Sr 3.905000 7.810000 7.810000
Ti 5.857500 9.762500 9.762500
O 5.857500 9.762500 7.810000
O 3.905000 9.762500 9.762500
O 5.857500 7.810000 9.762500
Sr 7.810000 0.000000 0.000000
Ti 9.762500 1.952500 1.952500
O 9.762500 1.952500 0.000000
O 7.810000 1.952500 1.952500
O 9.762500 0.000000 1.952500
Sr 7.810000 0.000000 3.905000
Ti 9.762500 1.952500 5.857500
O 9.762500 1.952500 3.905000
O 7.810000 1.952500 5.857500
O 9.762500 0.000000 5.857500
Sr 7.810000 0.000000 7.810000
Ti 9.762500 1.952500 9.762500
O 9.762500 1.952500 7.810000
O 7.810000 1.952500 9.762500
O 9.762500 0.000000 9.762500
Sr 7.810000 3.905000 0.000000
Ti 9.762500 5.857500 1.952500
O 9.762500 5.857500 0.000000
O 7.810000 5.857500 1.952500
O 9.762500 3.905000 1.952500
Sr 7.810000 3.905000 3.905000
Ti 9.762500 5.857500 5.857500
O 9.762500 5.857500 3.905000
O 7.810000 5.857500 5.857500
O 9.762500 3.905000 5.857500
Sr 7.810000 3.905000 7.810000
Ti 9.762500 5.857500 9.762500
O 9.762500 5.857500 7.810000
O 7.810000 5.857500 9.762500
O 9.762500 3.905000 9.762500
Sr 7.810000 7.810000 0.000000
Ti 9.762500 9.762500 1.952500
O 9.762500 9.762500 0.000000
O 7.810000 9.762500 1.952500
O 9.762500 7.810000 1.952500
Sr 7.810000 7.810000 3.905000
Ti 9.762500 9.762500 5.857500
O 9.762500 9.762500 3.905000
O 7.810000 9.762500 5.857500
O 9.762500 7.810000 5.857500
Sr 7.810000 7.810000 7.810000
Ti 9.762500 9.762500 9.762500
O 9.762500 9.762500 7.810000
O 7.810000 9.762500 9.762500
O 9.762500 7.810000 9.762500
