923
Properties=species:S:1:pos:R:3
Au 0.000000 0.000000 0.000000
Au 2.454124 0.000000 -1.516732
Au 2.454124 0.000000 1.516732
Au -2.454124 0.000000 -1.516732
Au -2.454124 0.000000 1.516732
Au -1.516732 2.454124 0.000000
Au 1.516732 2.454124 0.000000
Au -1.516732 -2.454124 0.000000
Au 1.516732 -2.454124 0.000000
Au 0.000000 -1.516732 2.454124
Au 0.000000 1.516732 2.454124
Au 0.000000 -1.516732 -2.454124
Au 0.000000 1.516732 -2.454124
Au 4.908248 0.000000 -3.033464
Au 4.908248 0.000000 0.000000
Au 4.908248 0.000000 3.033464
Au -4.908248 0.000000 -3.033464
Au -4.908248 0.000000 0.000000
Au -4.908248 0.000000 3.033464
Au -3.033464 4.908248 0.000000
Au 0.000000 4.908248 0.000000
Au 3.033464 4.908248 0.000000
Au -3.033464 -4.908248 0.000000
Au 0.000000 -4.908248 0.000000
Au 3.033464 -4.908248 0.000000
Au 0.000000 -3.033464 4.908248
Au 0.000000 0.000000 4.908248
Au 0.000000 3.033464 4.908248
Au 0.000000 -3.033464 -4.908248
Au 0.000000 0.000000 -4.908248
Au 0.000000 3.033464 -4.908248
Au 2.454124 -1.516732 3.970856
Au 2.454124 1.516732 3.970856
Au 2.454124 -1.516732 -3.970856
Au 2.454124 1.516732 -3.970856
Au -2.454124 -1.516732 3.970856
Au -2.454124 1.516732 3.970856
Au -2.454124 -1.516732 -3.970856
Au -2.454124 1.516732 -3.970856
Au 3.970856 2.454124 -1.516732
Au 3.970856 2.454124 1.516732
Au -3.970856 2.454124 -1.516732
Au -3.970856 2.454124 1.516732
Au 3.970856 -2.454124 -1.516732
Au 3.970856 -2.454124 1.516732
Au -3.970856 -2.454124 -1.516732
Au -3.970856 -2.454124 1.516732
Au -1.516732 3.970856 2.454124
Au 1.516732 3.970856 2.454124
Au -1.516732 -3.970856 2.454124
Au 1.516732 -3.970856 2.454124
Au -1.516732 3.970856 -2.454124
Au 1.516732 3.970856 -2.454124
Au -1.516732 -3.970856 -2.454124
Au 1.516732 -3.970856 -2.454124
Au 7.362372 0.000000 -4.550196
Au 7.362372 0.000000 -1.516732
Au 7.362372 0.000000 1.516732
Au 7.362372 0.000000 4.550196
Au -7.362372 0.000000 -4.550196
Au -7.362372 0.000000 -1.516732
Au -7.362372 0.000000 1.516732
Au -7.362372 0.000000 4.550196
Au -4.550196 7.362372 0.000000
Au -1.516732 7.362372 0.000000
Au 1.516732 7.362372 0.000000
Au 4.550196 7.362372 0.000000
Au -4.550196 -7.362372 0.000000
Au -1.516732 -7.362372 0.000000
Au 1.516732 -7.362372 0.000000
Au 4.550196 -7.362372 0.000000
Au 0.000000 -4.550196 7.362372
Au 0.000000 -1.516732 7.362372
Au 0.000000 1.516732 7.362372
Au 0.000000 4.550196 7.362372
Au 0.000000 -4.550196 -7.362372
Au 0.000000 -1.516732 -7.362372
Au 0.000000 1.516732 -7.362372
Au 0.000000 4.550196 -7.362372
Au 4.908248 -1.516732 5.487588
Au 2.454124 -3.033464 6.424980
Au 4.908248 1.516732 5.487588
Au 2.454124 0.000000 6.424980
Au 2.454124 3.033464 6.424980
Au 4.908248 -1.516732 -5.487588
Au 2.454124 -3.033464 -6.424980
Au 4.908248 1.516732 -5.487588
Au 2.454124 0.000000 -6.424980
Au 2.454124 3.033464 -6.424980
Au -4.908248 -1.516732 5.487588
Au -2.454124 -3.033464 6.424980
Au -4.908248 1.516732 5.487588
Au -2.454124 0.000000 6.424980
Au -2.454124 3.033464 6.424980
Au -4.908248 -1.516732 -5.487588
Au -2.454124 -3.033464 -6.424980
Au -4.908248 1.516732 -5.487588
Au -2.454124 0.000000 -6.424980
Au -2.454124 3.033464 -6.424980
Au 5.487588 4.908248 -1.516732
Au 6.424980 2.454124 -3.033464
Au 5.487588 4.908248 1.516732
Au 6.424980 2.454124 0.000000
Au 6.424980 2.454124 3.033464
Au -5.487588 4.908248 -1.516732
Au -6.424980 2.454124 -3.033464
Au -5.487588 4.908248 1.516732
Au -6.424980 2.454124 0.000000
Au -6.424980 2.454124 3.033464
Au 5.487588 -4.908248 -1.516732
Au 6.424980 -2.454124 -3.033464
Au 5.487588 -4.908248 1.516732
Au 6.424980 -2.454124 0.000000
Au 6.424980 -2.454124 3.033464
Au -5.487588 -4.908248 -1.516732
Au -6.424980 -2.454124 -3.033464
Au -5.487588 -4.908248 1.516732
Au -6.424980 -2.454124 0.000000
Au -6.424980 -2.454124 3.033464
Au -1.516732 5.487588 4.908248
Au -3.033464 6.424980 2.454124
Au 1.516732 5.487588 4.908248
Au 0.000000 6.424980 2.454124
Au 3.033464 6.424980 2.454124
Au -1.516732 -5.487588 4.908248
Au -3.033464 -6.424980 2.454124
Au 1.516732 -5.487588 4.908248
Au 0.000000 -6.424980 2.454124
Au 3.033464 -6.424980 2.454124
Au -1.516732 5.487588 -4.908248
Au -3.033464 6.424980 -2.454124
Au 1.516732 5.487588 -4.908248
Au 0.000000 6.424980 -2.454124
Au 3.033464 6.424980 -2.454124
Au -1.516732 -5.487588 -4.908248
Au -3.033464 -6.424980 -2.454124
Au 1.516732 -5.487588 -4.908248
Au 0.000000 -6.424980 -2.454124
Au 3.033464 -6.424980 -2.454124
Au 3.970856 -3.970856 3.970856
Au 3.970856 3.970856 3.970856
Au 3.970856 -3.970856 -3.970856
Au 3.970856 3.970856 -3.970856
Au -3.970856 -3.970856 3.970856
Au -3.970856 3.970856 3.970856
Au -3.970856 -3.970856 -3.970856
Au -3.970856 3.970856 -3.970856
Au 9.816496 0.000000 -6.066928
Au 9.816496 0.000000 -3.033464
Au 9.816496 0.000000 0.000000
Au 9.816496 0.000000 3.033464
Au 9.816496 0.000000 6.066928
Au -9.816496 0.000000 -6.066928
Au -9.816496 0.000000 -3.033464
Au -9.816496 0.000000 0.000000
Au -9.816496 0.000000 3.033464
Au -9.816496 0.000000 6.066928
Au -6.066928 9.816496 0.000000
Au -3.033464 9.816496 0.000000
Au 0.000000 9.816496 0.000000
Au 3.033464 9.816496 0.000000
Au 6.066928 9.816496 0.000000
Au -6.066928 -9.816496 0.000000
Au -3.033464 -9.816496 0.000000
Au 0.000000 -9.816496 0.000000
Au 3.033464 -9.816496 0.000000
Au 6.066928 -9.816496 0.000000
Au 0.000000 -6.066928 9.816496
Au 0.000000 -3.033464 9.816496
Au 0.000000 0.000000 9.816496
Au 0.000000 3.033464 9.816496
Au 0.000000 6.066928 9.816496
Au 0.000000 -6.066928 -9.816496
Au 0.000000 -3.033464 -9.816496
Au 0.000000 0.000000 -9.816496
Au 0.000000 3.033464 -9.816496
Au 0.000000 6.066928 -9.816496
Au 7.362372 -1.516732 7.004320
Au 4.908248 -3.033464 7.941712
Au 2.454124 -4.550196 8.879104
Au 7.362372 1.516732 7.004320
Au 4.908248 0.000000 7.941712
Au 2.454124 -1.516732 8.879104
Au 4.908248 3.033464 7.941712
Au 2.454124 1.516732 8.879104
Au 2.454124 4.550196 8.879104
Au 7.362372 -1.516732 -7.004320
Au 4.908248 -3.033464 -7.941712
Au 2.454124 -4.550196 -8.879104
Au 7.362372 1.516732 -7.004320
Au 4.908248 0.000000 -7.941712
Au 2.454124 -1.516732 -8.879104
Au 4.908248 3.033464 -7.941712
Au 2.454124 1.516732 -8.879104
Au 2.454124 4.550196 -8.879104
Au -7.362372 -1.516732 7.004320
Au -4.908248 -3.033464 7.941712
Au -2.454124 -4.550196 8.879104
Au -7.362372 1.516732 7.004320
Au -4.908248 0.000000 7.941712
Au -2.454124 -1.516732 8.879104
Au -4.908248 3.033464 7.941712
Au -2.454124 1.516732 8.879104
Au -2.454124 4.550196 8.879104
Au -7.362372 -1.516732 -7.004320
Au -4.908248 -3.033464 -7.941712
Au -2.454124 -4.550196 -8.879104
Au -7.362372 1.516732 -7.004320
Au -4.908248 0.000000 -7.941712
Au -2.454124 -1.516732 -8.879104
Au -4.908248 3.033464 -7.941712
Au -2.454124 1.516732 -8.879104
Au -2.454124 4.550196 -8.879104
Au 7.004320 7.362372 -1.516732
Au 7.941712 4.908248 -3.033464
Au 8.879104 2.454124 -4.550196
Au 7.004320 7.362372 1.516732
Au 7.941712 4.908248 0.000000
Au 8.879104 2.454124 -1.516732
Au 7.941712 4.908248 3.033464
Au 8.879104 2.454124 1.516732
Au 8.879104 2.454124 4.550196
Au -7.004320 7.362372 -1.516732
Au -7.941712 4.908248 -3.033464
Au -8.879104 2.454124 -4.550196
Au -7.004320 7.362372 1.516732
Au -7.941712 4.908248 0.000000
Au -8.879104 2.454124 -1.516732
Au -7.941712 4.908248 3.033464
Au -8.879104 2.454124 1.516732
Au -8.879104 2.454124 4.550196
Au 7.004320 -7.362372 -1.516732
Au 7.941712 -4.908248 -3.033464
Au 8.879104 -2.454124 -4.550196
Au 7.004320 -7.362372 1.516732
Au 7.941712 -4.908248 0.000000
Au 8.879104 -2.454124 -1.516732
Au 7.941712 -4.908248 3.033464
Au 8.879104 -2.454124 1.516732
Au 8.879104 -2.454124 4.550196
Au -7.004320 -7.362372 -1.516732
Au -7.941712 -4.908248 -3.033464
Au -8.879104 -2.454124 -4.550196
Au -7.004320 -7.362372 1.516732
Au -7.941712 -4.908248 0.000000
Au -8.879104 -2.454124 -1.516732
Au -7.941712 -4.908248 3.033464
Au -8.879104 -2.454124 1.516732
Au -8.879104 -2.454124 4.550196
Au -1.516732 7.004320 7.362372
Au -3.033464 7.941712 4.908248
Au -4.550196 8.879104 2.454124
Au 1.516732 7.004320 7.362372
Au 0.000000 7.941712 4.908248
Au -1.516732 8.879104 2.454124
Au 3.033464 7.941712 4.908248
Au 1.516732 8.879104 2.454124
Au 4.550196 8.879104 2.454124
Au -1.516732 -7.004320 7.362372
Au -3.033464 -7.941712 4.908248
Au -4.550196 -8.879104 2.454124
Au 1.516732 -7.004320 7.362372
Au 0.000000 -7.941712 4.908248
Au -1.516732 -8.879104 2.454124
Au 3.033464 -7.941712 4.908248
Au 1.516732 -8.879104 2.454124
Au 4.550196 -8.879104 2.454124
Au -1.516732 7.004320 -7.362372
Au -3.033464 7.941712 -4.908248
Au -4.550196 8.879104 -2.454124
Au 1.516732 7.004320 -7.362372
Au 0.000000 7.941712 -4.908248
Au -1.516732 8.879104 -2.454124
Au 3.033464 7.941712 -4.908248
Au 1.516732 8.879104 -2.454124
Au 4.550196 8.879104 -2.454124
Au -1.516732 -7.004320 -7.362372
Au -3.033464 -7.941712 -4.908248
Au -4.550196 -8.879104 -2.454124
Au 1.516732 -7.004320 -7.362372
Au 0.000000 -7.941712 -4.908248
Au -1.516732 -8.879104 -2.454124
Au 3.033464 -7.941712 -4.908248
Au 1.516732 -8.879104 -2.454124
Au 4.550196 -8.879104 -2.454124
Au 6.424980 -3.970856 5.487588
Au 6.424980 3.970856 5.487588
Au 5.487588 -6.424980 3.970856
Au 5.487588 6.424980 3.970856
Au 3.970856 -5.487588 6.424980
Au 3.970856 5.487588 6.424980
Au 6.424980 -3.970856 -5.487588
Au 6.424980 3.970856 -5.487588
Au 5.487588 -6.424980 -3.970856
Au 5.487588 6.424980 -3.970856
Au 3.970856 -5.487588 -6.424980
Au 3.970856 5.487588 -6.424980
Au -6.424980 -3.970856 5.487588
Au -6.424980 3.970856 5.487588
Au -5.487588 -6.424980 3.970856
Au -5.487588 6.424980 3.970856
Au -3.970856 -5.487588 6.424980
Au -3.970856 5.487588 6.424980
Au -6.424980 -3.970856 -5.487588
Au -6.424980 3.970856 -5.487588
Au -5.487588 -6.424980 -3.970856
Au -5.487588 6.424980 -3.970856
Au -3.970856 -5.487588 -6.424980
Au -3.970856 5.487588 -6.424980
Au 12.270619 0.000000 -7.583660
Au 12.270619 0.000000 -4.550196
Au 12.270619 0.000000 -1.516732
Au 12.270619 0.000000 1.516732
Au 12.270619 0.000000 4.550196
Au 12.270619 0.000000 7.583660
Au -12.270619 0.000000 -7.583660
Au -12.270619 0.000000 -4.550196
Au -12.270619 0.000000 -1.516732
Au -12.270619 0.000000 1.516732
Au -12.270619 0.000000 4.550196
Au -12.270619 0.000000 7.583660
Au -7.583660 12.270619 0.000000
Au -4.550196 12.270619 0.000000
Au -1.516732 12.270619 0.000000
Au 1.516732 12.270619 0.000000
Au 4.550196 12.270619 0.000000
Au 7.583660 12.270619 0.000000
Au -7.583660 -12.270619 0.000000
Au -4.550196 -12.270619 0.000000
Au -1.516732 -12.270619 0.000000
Au 1.516732 -12.270619 0.000000
Au 4.550196 -12.270619 0.000000
Au 7.583660 -12.270619 0.000000
Au 0.000000 -7.583660 12.270619
Au 0.000000 -4.550196 12.270619
Au 0.000000 -1.516732 12.270619
Au 0.000000 1.516732 12.270619
Au 0.000000 4.550196 12.270619
Au 0.000000 7.583660 12.270619
Au 0.000000 -7.583660 -12.270619
Au 0.000000 -4.550196 -12.270619
Au 0.000000 -1.516732 -12.270619
Au 0.000000 1.516732 -12.270619
Au 0.000000 4.550196 -12.270619
Au 0.000000 7.583660 -12.270619
Au 9.816496 -1.516732 8.521052
Au 7.362372 -3.033464 9.458444
Au 4.908248 -4.550196 10.395836
Au 2.454124 -6.066928 11.333228
Au 9.816496 1.516732 8.521052
Au 7.362372 0.000000 9.458444
Au 4.908248 -1.516732 10.395836
Au 2.454124 -3.033464 11.333228
Au 7.362372 3.033464 9.458444
Au 4.908248 1.516732 10.395836
Au 2.454124 0.000000 11.333228
Au 4.908248 4.550196 10.395836
Au 2.454124 3.033464 11.333228
Au 2.454124 6.066928 11.333228
Au 9.816496 -1.516732 -8.521052
Au 7.362372 -3.033464 -9.458444
Au 4.908248 -4.550196 -10.395836
Au 2.454124 -6.066928 -11.333228
Au 9.816496 1.516732 -8.521052
Au 7.362372 0.000000 -9.458444
Au 4.908248 -1.516732 -10.395836
Au 2.454124 -3.033464 -11.333228
Au 7.362372 3.033464 -9.458444
Au 4.908248 1.516732 -10.395836
Au 2.454124 0.000000 -11.333228
Au 4.908248 4.550196 -10.395836
Au 2.454124 3.033464 -11.333228
Au 2.454124 6.066928 -11.333228
Au -9.816496 -1.516732 8.521052
Au -7.362372 -3.033464 9.458444
Au -4.908248 -4.550196 10.395836
Au -2.454124 -6.066928 11.333228
Au -9.816496 1.516732 8.521052
Au -7.362372 0.000000 9.458444
Au -4.908248 -1.516732 10.395836
Au -2.454124 -3.033464 11.333228
Au -7.362372 3.033464 9.458444
Au -4.908248 1.516732 10.395836
Au -2.454124 0.000000 11.333228
Au -4.908248 4.550196 10.395836
Au -2.454124 3.033464 11.333228
Au -2.454124 6.066928 11.333228
Au -9.816496 -1.516732 -8.521052
Au -7.362372 -3.033464 -9.458444
Au -4.908248 -4.550196 -10.395836
Au -2.454124 -6.066928 -11.333228
Au -9.816496 1.516732 -8.521052
Au -7.362372 0.000000 -9.458444
Au -4.908248 -1.516732 -10.395836
Au -2.454124 -3.033464 -11.333228
Au -7.362372 3.033464 -9.458444
Au -4.908248 1.516732 -10.395836
Au -2.454124 0.000000 -11.333228
Au -4.908248 4.550196 -10.395836
Au -2.454124 3.033464 -11.333228
Au -2.454124 6.066928 -11.333228
Au 8.521052 9.816496 -1.516732
Au 9.458444 7.362372 -3.033464
Au 10.395836 4.908248 -4.550196
Au 11.333228 2.454124 -6.066928
Au 8.521052 9.816496 1.516732
Au 9.458444 7.362372 0.000000
Au 10.395836 4.908248 -1.516732
Au 11.333228 2.454124 -3.033464
Au 9.458444 7.362372 3.033464
Au 10.395836 4.908248 1.516732
Au 11.333228 2.454124 0.000000
Au 10.395836 4.908248 4.550196
Au 11.333228 2.454124 3.033464
Au 11.333228 2.454124 6.066928
Au -8.521052 9.816496 -1.516732
Au -9.458444 7.362372 -3.033464
Au -10.395836 4.908248 -4.550196
Au -11.333228 2.454124 -6.066928
Au -8.521052 9.816496 1.516732
Au -9.458444 7.362372 0.000000
Au -10.395836 4.908248 -1.516732
Au -11.333228 2.454124 -3.033464
Au -9.458444 7.362372 3.033464
Au -10.395836 4.908248 1.516732
Au -11.333228 2.454124 0.000000
Au -10.395836 4.908248 4.550196
Au -11.333228 2.454124 3.033464
Au -11.333228 2.454124 6.066928
Au 8.521052 -9.816496 -1.516732
Au 9.458444 -7.362372 -3.033464
Au 10.395836 -4.908248 -4.550196
Au 11.333228 -2.454124 -6.066928
Au 8.521052 -9.816496 1.516732
Au 9.458444 -7.362372 0.000000
Au 10.395836 -4.908248 -1.516732
Au 11.333228 -2.454124 -3.033464
Au 9.458444 -7.362372 3.033464
Au 10.395836 -4.908248 1.516732
Au 11.333228 -2.454124 0.000000
Au 10.395836 -4.908248 4.550196
Au 11.333228 -2.454124 3.033464
Au 11.333228 -2.454124 6.066928
Au -8.521052 -9.816496 -1.516732
Au -9.458444 -7.362372 -3.033464
Au -10.395836 -4.908248 -4.550196
Au -11.333228 -2.454124 -6.066928
Au -8.521052 -9.816496 1.516732
Au -9.458444 -7.362372 0.000000
Au -10.395836 -4.908248 -1.516732
Au -11.333228 -2.454124 -3.033464
Au -9.458444 -7.362372 3.033464
Au -10.395836 -4.908248 1.516732
Au -11.333228 -2.454124 0.000000
Au -10.395836 -4.908248 4.550196
Au -11.333228 -2.454124 3.033464
Au -11.333228 -2.454124 6.066928
Au -1.516732 8.521052 9.816496
Au -3.033464 9.458444 7.362372
Au -4.550196 10.395836 4.908248
Au -6.066928 11.333228 2.454124
Au 1.516732 8.521052 9.816496
Au 0.000000 9.458444 7.362372
Au -1.516732 10.395836 4.908248
Au -3.033464 11.333228 2.454124
Au 3.033464 9.458444 7.362372
Au 1.516732 10.395836 4.908248
Au 0.000000 11.333228 2.454124
Au 4.550196 10.395836 4.908248
Au 3.033464 11.333228 2.454124
Au 6.066928 11.333228 2.454124
Au -1.516732 -8.521052 9.816496
Au -3.033464 -9.458444 7.362372
Au -4.550196 -10.395836 4.908248
Au -6.066928 -11.333228 2.454124
Au 1.516732 -8.521052 9.816496
Au 0.000000 -9.458444 7.362372
Au -1.516732 -10.395836 4.908248
Au -3.033464 -11.333228 2.454124
Au 3.033464 -9.458444 7.362372
Au 1.516732 -10.395836 4.908248
Au 0.000000 -11.333228 2.454124
Au 4.550196 -10.395836 4.908248
Au 3.033464 -11.333228 2.454124
Au 6.066928 -11.333228 2.454124
Au -1.516732 8.521052 -9.816496
Au -3.033464 9.458444 -7.362372
Au -4.550196 10.395836 -4.908248
Au -6.066928 11.333228 -2.454124
Au 1.516732 8.521052 -9.816496
Au 0.000000 9.458444 -7.362372
Au -1.516732 10.395836 -4.908248
Au -3.033464 11.333228 -2.454124
Au 3.033464 9.458444 -7.362372
Au 1.516732 10.395836 -4.908248
Au 0.000000 11.333228 -2.454124
Au 4.550196 10.395836 -4.908248
Au 3.033464 11.333228 -2.454124
Au 6.066928 11.333228 -2.454124
Au -1.516732 -8.521052 -9.816496
Au -3.033464 -9.458444 -7.362372
Au -4.550196 -10.395836 -4.908248
Au -6.066928 -11.333228 -2.454124
Au 1.516732 -8.521052 -9.816496
Au 0.000000 -9.458444 -7.362372
Au -1.516732 -10.395836 -4.908248
Au -3.033464 -11.333228 -2.454124
Au 3.033464 -9.458444 -7.362372
Au 1.516732 -10.395836 -4.908248
Au 0.000000 -11.333228 -2.454124
Au 4.550196 -10.395836 -4.908248
Au 3.033464 -11.333228 -2.454124
Au 6.066928 -11.333228 -2.454124
Au 8.879104 -3.970856 7.004320
Au 8.879104 3.970856 7.004320
Au 7.941712 -6.424980 5.487588
Au 7.941712 6.424980 5.487588
Au 7.004320 -8.879104 3.970856
Au 7.004320 8.879104 3.970856
Au 6.424980 -5.487588 7.941712
Au 6.424980 5.487588 7.941712
Au 5.487588 -7.941712 6.424980
Au 5.487588 7.941712 6.424980
Au 3.970856 -7.004320 8.879104
Au 3.970856 7.004320 8.879104
Au 8.879104 -3.970856 -7.004320
Au 8.879104 3.970856 -7.004320
Au 7.941712 -6.424980 -5.487588
Au 7.941712 6.424980 -5.487588
Au 7.004320 -8.879104 -3.970856
Au 7.004320 8.879104 -3.970856
Au 6.424980 -5.487588 -7.941712
Au 6.424980 5.487588 -7.941712
Au 5.487588 -7.941712 -6.424980
Au 5.487588 7.941712 -6.424980
Au 3.970856 -7.004320 -8.879104
Au 3.970856 7.004320 -8.879104
Au -8.879104 -3.970856 7.004320
Au -8.879104 3.970856 7.004320
Au -7.941712 -6.424980 5.487588
Au -7.941712 6.424980 5.487588
Au -7.004320 -8.879104 3.970856
Au -7.004320 8.879104 3.970856
Au -6.424980 -5.487588 7.941712
Au -6.424980 5.487588 7.941712
Au -5.487588 -7.941712 6.424980
Au -5.487588 7.941712 6.424980
Au -3.970856 -7.004320 8.879104
Au -3.970856 7.004320 8.879104
Au -8.879104 -3.970856 -7.004320
Au -8.879104 3.970856 -7.004320
Au -7.941712 -6.424980 -5.487588
Au -7.941712 6.424980 -5.487588
Au -7.004320 -8.879104 -3.970856
Au -7.004320 8.879104 -3.970856
Au -6.424980 -5.487588 -7.941712
Au -6.424980 5.487588 -7.941712
Au -5.487588 -7.941712 -6.424980
Au -5.487588 7.941712 -6.424980
Au -3.970856 -7.004320 -8.879104
Au -3.970856 7.004320 -8.879104
Au 14.724743 0.000000 -9.100392
Au 14.724743 0.000000 -6.066928
Au 14.724743 0.000000 -3.033464
Au 14.724743 0.000000 0.000000
Au 14.724743 0.000000 3.033464
Au 14.724743 0.000000 6.066928
Au 14.724743 0.000000 9.100392
Au -14.724743 0.000000 -9.100392
Au -14.724743 0.000000 -6.066928
Au -14.724743 0.000000 -3.033464
Au -14.724743 0.000000 0.000000
Au -14.724743 0.000000 3.033464
Au -14.724743 0.000000 6.066928
Au -14.724743 0.000000 9.100392
Au -9.100392 14.724743 0.000000
Au -6.066928 14.724743 0.000000
Au -3.033464 14.724743 0.000000
Au 0.000000 14.724743 0.000000
Au 3.033464 14.724743 0.000000
Au 6.066928 14.724743 0.000000
Au 9.100392 14.724743 0.000000
Au -9.100392 -14.724743 0.000000
Au -6.066928 -14.724743 0.000000
Au -3.033464 -14.724743 0.000000
Au 0.000000 -14.724743 0.000000
Au 3.033464 -14.724743 0.000000
Au 6.066928 -14.724743 0.000000
Au 9.100392 -14.724743 0.000000
Au 0.000000 -9.100392 14.724743
Au 0.000000 -6.066928 14.724743
Au 0.000000 -3.033464 14.724743
Au 0.000000 0.000000 14.724743
Au 0.000000 3.033464 14.724743
Au 0.000000 6.066928 14.724743
Au 0.000000 9.100392 14.724743
Au 0.000000 -9.100392 -14.724743
Au 0.000000 -6.066928 -14.724743
Au 0.000000 -3.033464 -14.724743
Au 0.000000 0.000000 -14.724743
Au 0.000000 3.033464 -14.724743
Au 0.000000 6.066928 -14.724743
Au 0.000000 9.100392 -14.724743
Au 12.270619 -1.516732 10.037784
Au 9.816496 -3.033464 10.975176
Au 7.362372 -4.550196 11.912568
Au 4.908248 -6.066928 12.849960
Au 2.454124 -7.583660 13.787351
Au 12.270619 1.516732 10.037784
Au 9.816496 0.000000 10.975176
Au 7.362372 -1.516732 11.912568
Au 4.908248 -3.033464 12.849960
Au 2.454124 -4.550196 13.787351
Au 9.816496 3.033464 10.975176
Au 7.362372 1.516732 11.912568
Au 4.908248 0.000000 12.849960
Au 2.454124 -1.516732 13.787351
Au 7.362372 4.550196 11.912568
Au 4.908248 3.033464 12.849960
Au 2.454124 1.516732 13.787351
Au 4.908248 6.066928 12.849960
Au 2.454124 4.550196 13.787351
Au 2.454124 7.583660 13.787351
Au 12.270619 -1.516732 -10.037784
Au 9.816496 -3.033464 -10.975176
Au 7.362372 -4.550196 -11.912568
Au 4.908248 -6.066928 -12.849960
Au 2.454124 -7.583660 -13.787351
Au 12.270619 1.516732 -10.037784
Au 9.816496 0.000000 -10.975176
Au 7.362372 -1.516732 -11.912568
Au 4.908248 -3.033464 -12.849960
Au 2.454124 -4.550196 -13.787351
Au 9.816496 3.033464 -10.975176
Au 7.362372 1.516732 -11.912568
Au 4.908248 0.000000 -12.849960
Au 2.454124 -1.516732 -13.787351
Au 7.362372 4.550196 -11.912568
Au 4.908248 3.033464 -12.849960
Au 2.454124 1.516732 -13.787351
Au 4.908248 6.066928 -12.849960
Au 2.454124 4.550196 -13.787351
Au 2.454124 7.583660 -13.787351
Au -12.270619 -1.516732 10.037784
Au -9.816496 -3.033464 10.975176
Au -7.362372 -4.550196 11.912568
Au -4.908248 -6.066928 12.849960
Au -2.454124 -7.583660 13.787351
Au -12.270619 1.516732 10.037784
Au -9.816496 0.000000 10.975176
Au -7.362372 -1.516732 11.912568
Au -4.908248 -3.033464 12.849960
Au -2.454124 -4.550196 13.787351
Au -9.816496 3.033464 10.975176
Au -7.362372 1.516732 11.912568
Au -4.908248 0.000000 12.849960
Au -2.454124 -1.516732 13.787351
Au -7.362372 4.550196 11.912568
Au -4.908248 3.033464 12.849960
Au -2.454124 1.516732 13.787351
Au -4.908248 6.066928 12.849960
Au -2.454124 4.550196 13.787351
Au -2.454124 7.583660 13.787351
Au -12.270619 -1.516732 -10.037784
Au -9.816496 -3.033464 -10.975176
Au -7.362372 -4.550196 -11.912568
Au -4.908248 -6.066928 -12.849960
Au -2.454124 -7.583660 -13.787351
Au -12.270619 1.516732 -10.037784
Au -9.816496 0.000000 -10.975176
Au -7.362372 -1.516732 -11.912568
Au -4.908248 -3.033464 -12.849960
Au -2.454124 -4.550196 -13.787351
Au -9.816496 3.033464 -10.975176
Au -7.362372 1.516732 -11.912568
Au -4.908248 0.000000 -12.849960
Au -2.454124 -1.516732 -13.787351
Au -7.362372 4.550196 -11.912568
Au -4.908248 3.033464 -12.849960
Au -2.454124 1.516732 -13.787351
Au -4.908248 6.066928 -12.849960
Au -2.454124 4.550196 -13.787351
Au -2.454124 7.583660 -13.787351
Au 10.037784 12.270619 -1.516732
Au 10.975176 9.816496 -3.033464
Au 11.912568 7.362372 -4.550196
Au 12.849960 4.908248 -6.066928
Au 13.787351 2.454124 -7.583660
Au 10.037784 12.270619 1.516732
Au 10.975176 9.816496 0.000000
Au 11.912568 7.362372 -1.516732
Au 12.849960 4.908248 -3.033464
Au 13.787351 2.454124 -4.550196
Au 10.975176 9.816496 3.033464
Au 11.912568 7.362372 1.516732
Au 12.849960 4.908248 0.000000
Au 13.787351 2.454124 -1.516732
Au 11.912568 7.362372 4.550196
Au 12.849960 4.908248 3.033464
Au 13.787351 2.454124 1.516732
Au 12.849960 4.908248 6.066928
Au 13.787351 2.454124 4.550196
Au 13.787351 2.454124 7.583660
Au -10.037784 12.270619 -1.516732
Au -10.975176 9.816496 -3.033464
Au -11.912568 7.362372 -4.550196
Au -12.849960 4.908248 -6.066928
Au -13.787351 2.454124 -7.583660
Au -10.037784 12.270619 1.516732
Au -10.975176 9.816496 0.000000
Au -11.912568 7.362372 -1.516732
Au -12.849960 4.908248 -3.033464
Au -13.787351 2.454124 -4.550196
Au -10.975176 9.816496 3.033464
Au -11.912568 7.362372 1.516732
Au -12.849960 4.908248 0.000000
Au -13.787351 2.454124 -1.516732
Au -11.912568 7.362372 4.550196
Au -12.849960 4.908248 3.033464
Au -13.787351 2.454124 1.516732
Au -12.849960 4.908248 6.066928
Au -13.787351 2.454124 4.550196
Au -13.787351 2.454124 7.583660
Au 10.037784 -12.270619 -1.516732
Au 10.975176 -9.816496 -3.033464
Au 11.912568 -7.362372 -4.550196
Au 12.849960 -4.908248 -6.066928
Au 13.787351 -2.454124 -7.583660
Au 10.037784 -12.270619 1.516732
Au 10.975176 -9.816496 0.000000
Au 11.912568 -7.362372 -1.516732
Au 12.849960 -4.908248 -3.033464
Au 13.787351 -2.454124 -4.550196
Au 10.975176 -9.816496 3.033464
Au 11.912568 -7.362372 1.516732
Au 12.849960 -4.908248 0.000000
Au 13.787351 -2.454124 -1.516732
Au 11.912568 -7.362372 4.550196
Au 12.849960 -4.908248 3.033464
Au 13.787351 -2.454124 1.516732
Au 12.849960 -4.908248 6.066928
Au 13.787351 -2.454124 4.550196
Au 13.787351 -2.454124 7.583660
Au -10.037784 -12.270619 -1.516732
Au -10.975176 -9.816496 -3.033464
Au -11.912568 -7.362372 -4.550196
Au -12.849960 -4.908248 -6.066928
Au -13.787351 -2.454124 -7.583660
Au -10.037784 -12.270619 1.516732
Au -10.975176 -9.816496 0.000000
Au -11.912568 -7.362372 -1.516732
Au -12.849960 -4.908248 -3.033464
Au -13.787351 -2.454124 -4.550196
Au -10.975176 -9.816496 3.033464
Au -11.912568 -7.362372 1.516732
Au -12.849960 -4.908248 0.000000
Au -13.787351 -2.454124 -1.516732
Au -11.912568 -7.362372 4.550196
Au -12.849960 -4.908248 3.033464
Au -13.787351 -2.454124 1.516732
Au -12.849960 -4.908248 6.066928
Au -13.787351 -2.454124 4.550196
Au -13.787351 -2.454124 7.583660
Au -1.516732 10.037784 12.270619
Au -3.033464 10.975176 9.816496
Au -4.550196 11.912568 7.362372
Au -6.066928 12.849960 4.908248
Au -7.583660 13.787351 2.454124
Au 1.516732 10.037784 12.270619
Au 0.000000 10.975176 9.816496
Au -1.516732 11.912568 7.362372
Au -3.033464 12.849960 4.908248
Au -4.550196 13.787351 2.454124
Au 3.033464 10.975176 9.816496
Au 1.516732 11.912568 7.362372
Au 0.000000 12.849960 4.908248
Au -1.516732 13.787351 2.454124
Au 4.550196 11.912568 7.362372
Au 3.033464 12.849960 4.908248
Au 1.516732 13.787351 2.454124
Au 6.066928 12.849960 4.908248
Au 4.550196 13.787351 2.454124
Au 7.583660 13.787351 2.454124
Au -1.516732 -10.037784 12.270619
Au -3.033464 -10.975176 9.816496
Au -4.550196 -11.912568 7.362372
Au -6.066928 -12.849960 4.908248
Au -7.583660 -13.787351 2.454124
Au 1.516732 -10.037784 12.270619
Au 0.000000 -10.975176 9.816496
Au -1.516732 -11.912568 7.362372
Au -3.033464 -12.849960 4.908248
Au -4.550196 -13.787351 2.454124
Au 3.033464 -10.975176 9.816496
Au 1.516732 -11.912568 7.362372
Au 0.000000 -12.849960 4.908248
Au -1.516732 -13.787351 2.454124
Au 4.550196 -11.912568 7.362372
Au 3.033464 -12.849960 4.908248
Au 1.516732 -13.787351 2.454124
Au 6.066928 -12.849960 4.908248
Au 4.550196 -13.787351 2.454124
Au 7.583660 -13.787351 2.454124
Au -1.516732 10.037784 -12.270619
Au -3.033464 10.975176 -9.816496
Au -4.550196 11.912568 -7.362372
Au -6.066928 12.849960 -4.908248
Au -7.583660 13.787351 -2.454124
Au 1.516732 10.037784 -12.270619
Au 0.000000 10.975176 -9.816496
Au -1.516732 11.912568 -7.362372
Au -3.033464 12.849960 -4.908248
Au -4.550196 13.787351 -2.454124
Au 3.033464 10.975176 -9.816496
Au 1.516732 11.912568 -7.362372
Au 0.000000 12.849960 -4.908248
Au -1.516732 13.787351 -2.454124
Au 4.550196 11.912568 -7.362372
Au 3.033464 12.849960 -4.908248
Au 1.516732 13.787351 -2.454124
Au 6.066928 12.849960 -4.908248
Au 4.550196 13.787351 -2.454124
Au 7.583660 13.787351 -2.454124
Au -1.516732 -10.037784 -12.270619
Au -3.033464 -10.975176 -9.816496
Au -4.550196 -11.912568 -7.362372
Au -6.066928 -12.849960 -4.908248
Au -7.583660 -13.787351 -2.454124
Au 1.516732 -10.037784 -12.270619
Au 0.000000 -10.975176 -9.816496
Au -1.516732 -11.912568 -7.362372
Au -3.033464 -12.849960 -4.908248
Au -4.550196 -13.787351 -2.454124
Au 3.033464 -10.975176 -9.816496
Au 1.516732 -11.912568 -7.362372
Au 0.000000 -12.849960 -4.908248
Au -1.516732 -13.787351 -2.454124
Au 4.550196 -11.912568 -7.362372
Au 3.033464 -12.849960 -4.908248
Au 1.516732 -13.787351 -2.454124
Au 6.066928 -12.849960 -4.908248
Au 4.550196 -13.787351 -2.454124
Au 7.583660 -13.787351 -2.454124
Au 11.333228 -3.970856 8.521052
Au 11.333228 3.970856 8.521052
Au 10.395836 -6.424980 7.004320
Au 10.395836 6.424980 7.004320
Au 9.458444 -8.879104 5.487588
Au 9.458444 8.879104 5.487588
Au 8.521052 -11.333228 3.970856
Au 8.521052 11.333228 3.970856
Au 8.879104 -5.487588 9.458444
Au 8.879104 5.487588 9.458444
Au 7.941712 -7.941712 7.941712
Au 7.941712 7.941712 7.941712
Au 7.004320 -10.395836 6.424980
Au 7.004320 10.395836 6.424980
Au 6.424980 -7.004320 10.395836
Au 6.424980 7.004320 10.395836
Au 5.487588 -9.458444 8.879104
Au 5.487588 9.458444 8.879104
Au 3.970856 -8.521052 11.333228
Au 3.970856 8.521052 11.333228
Au 11.333228 -3.970856 -8.521052
Au 11.333228 3.970856 -8.521052
Au 10.395836 -6.424980 -7.004320
Au 10.395836 6.424980 -7.004320
Au 9.458444 -8.879104 -5.487588
Au 9.458444 8.879104 -5.487588
Au 8.521052 -11.333228 -3.970856
Au 8.521052 11.333228 -3.970856
Au 8.879104 -5.487588 -9.458444
Au 8.879104 5.487588 -9.458444
Au 7.941712 -7.941712 -7.941712
Au 7.941712 7.941712 -7.941712
Au 7.004320 -10.395836 -6.424980
Au 7.004320 10.395836 -6.424980
Au 6.424980 -7.004320 -10.395836
Au 6.424980 7.004320 -10.395836
Au 5.487588 -9.458444 -8.879104
Au 5.487588 9.458444 -8.879104
Au 3.970856 -8.521052 -11.333228
Au 3.970856 8.521052 -11.333228
Au -11.333228 -3.970856 8.521052
Au -11.333228 3.970856 8.521052
Au -10.395836 -6.424980 7.004320
Au -10.395836 6.424980 7.004320
Au -9.458444 -8.879104 5.487588
Au -9.458444 8.879104 5.487588
Au -8.521052 -11.333228 3.970856
Au -8.521052 11.333228 3.970856
Au -8.879104 -5.487588 9.458444
Au -8.879104 5.487588 9.458444
Au -7.941712 -7.941712 7.941712
Au -7.941712 7.941712 7.941712
Au -7.004320 -10.395836 6.424980
Au -7.004320 10.395836 6.424980
Au -6.424980 -7.004320 10.395836
Au -6.424980 7.004320 10.395836
Au -5.487588 -9.458444 8.879104
Au -5.487588 9.458444 8.879104
Au -3.970856 -8.521052 11.333228
Au -3.970856 8.521052 11.333228
Au -11.333228 -3.970856 -8.521052
Au -11.333228 3.970856 -8.521052
Au -10.395836 -6.424980 -7.004320
Au -10.395836 6.424980 -7.004320
Au -9.458444 -8.879104 -5.487588
Au -9.458444 8.879104 -5.487588
Au -8.521052 -11.333228 -3.970856
Au -8.521052 11.333228 -3.970856
Au -8.879104 -5.487588 -9.458444
Au -8.879104 5.487588 -9.458444
Au -7.941712 -7.941712 -7.941712
Au -7.941712 7.941712 -7.941712
Au -7.004320 -10.395836 -6.424980
Au -7.004320 10.395836 -6.424980
Au -6.424980 -7.004320 -10.395836
Au -6.424980 7.004320 -10.395836
Au -5.487588 -9.458444 -8.879104
Au -5.487588 9.458444 -8.879104
Au -3.970856 -8.521052 -11.333228
Au -3.970856 8.521052 -11.333228
