60
Properties=species:S:1:pos:R:3
C 2.210195 0.586663 2.666950
C 3.107639 0.157701 1.630029
C 1.328443 -0.315894 3.236323
C 3.090871 -1.158500 1.201424
C 3.187924 -1.457460 -0.199701
C 3.221462 1.223097 0.673944
C 3.316121 0.935159 -0.676515
C 3.298498 -0.430114 -1.120414
C -0.448084 1.359148 3.208102
C 0.467206 2.294983 2.617526
C -0.025657 0.076422 3.508626
C 1.772792 1.917658 2.352969
C 2.395462 2.309569 1.118954
C -0.261020 3.082094 1.662312
C 0.340773 3.459239 0.474597
C 1.695117 3.069245 0.197662
C -2.125839 -0.845885 2.670096
C -2.562099 0.485520 2.353172
C -0.878152 -1.046199 3.236730
C -1.741510 1.567996 2.619733
C -1.626247 2.635703 1.664181
C -3.298481 0.430187 1.120421
C -3.187947 1.457389 0.199603
C -2.336026 2.581363 0.476091
C -0.500521 -2.979777 1.794031
C -1.794434 -2.772909 1.204789
C -0.051424 -2.132884 2.793883
C -2.589147 -1.722583 1.632972
C -3.316070 -0.935064 0.676527
C -1.695192 -3.069258 -0.197656
C -2.395490 -2.309685 -1.118986
C -3.221418 -1.223183 -0.673958
C 2.175823 -2.094626 1.792253
C 1.711862 -2.974968 0.755720
C 1.313066 -1.682942 2.794389
C 0.395902 -3.405140 0.755764
C -0.340822 -3.459188 -0.474561
C 2.336006 -2.581450 -0.476105
C 1.626376 -2.635735 -1.664231
C 0.261135 -3.082127 -1.662262
C -2.210084 -0.586864 -2.667030
C -1.772697 -1.917897 -2.353047
C -0.467072 -2.295051 -2.617510
C -1.328350 0.315768 -3.236238
C -2.175988 2.094538 -1.792329
C -3.090966 1.158347 -1.201575
C -3.107609 -0.157845 -1.630163
C -1.313136 1.682829 -2.794364
C 0.500322 2.979964 -1.794020
C -0.396115 3.405282 -0.755727
C -1.712063 2.974912 -0.755799
C 0.051282 2.132948 -2.793745
C 2.125863 0.846081 -2.670053
C 2.589185 1.722774 -1.632956
C 1.794301 2.773068 -1.204826
C 0.878132 1.046351 -3.236531
C 0.448245 -1.359106 -3.208051
C 1.741695 -1.567956 -2.619771
C 2.562172 -0.485353 -2.353203
C 0.025790 -0.076357 -3.508445
