137
Properties=species:S:1:pos:R:3
Mg 5.489000 0.263000 -0.010000
C 4.149000 1.412000 -3.031000
C 2.529000 1.079000 1.487000
C 6.497000 -1.480000 2.733000
C 8.248000 -1.038000 -1.770000
N 3.623000 1.129000 -0.699000
C 3.278000 1.588000 -1.960000
C 1.910000 2.251000 -1.992000
C 1.654000 2.480000 -0.468000
C 2.640000 1.494000 0.151000
C 1.879000 3.927000 -0.016000
C 0.826000 1.425000 -2.720000
C -0.312000 2.238000 -3.342000
C -1.194000 1.439000 -4.255000
O -0.894000 1.099000 -5.378000
O -2.378000 1.150000 -3.666000
N 4.621000 -0.160000 1.852000
C 3.419000 0.275000 2.300000
C 3.218000 -0.170000 3.605000
C 4.361000 -0.932000 3.984000
C 5.213000 -0.885000 2.880000
C 2.001000 0.084000 4.453000
C 4.684000 -1.627000 5.269000
C 4.146000 -1.665000 6.470000
N 7.101000 -1.086000 0.399000
C 7.372000 -1.594000 1.632000
C 8.606000 -2.207000 1.608000
C 9.107000 -2.077000 0.340000
C 8.168000 -1.390000 -0.404000
C 9.297000 -2.889000 2.762000
C 10.433000 -2.593000 -0.162000
C 10.329000 -3.983000 -0.777000
N 6.136000 0.127000 -1.968000
C 7.298000 -0.363000 -2.535000
C 7.291000 -0.073000 -3.922000
C 6.086000 0.629000 -4.174000
C 5.417000 0.727000 -2.967000
C 8.319000 -0.399000 -4.955000
C 5.272000 1.274000 -5.207000
O 5.451000 1.377000 -6.413000
C 4.022000 1.897000 -4.468000
C 4.111000 3.409000 -4.589000
O 5.010000 4.059000 -4.126000
O 3.066000 3.911000 -5.273000
C 3.001000 5.347000 -5.475000
C -3.458000 0.415000 -4.302000
C -4.310000 -0.225000 -3.256000
C -5.349000 -1.060000 -3.403000
C -5.991000 -1.498000 -4.704000
C -5.961000 -1.676000 -2.157000
C -7.052000 -0.832000 -1.500000
C -7.423000 -1.223000 -0.060000
C -8.643000 -0.462000 0.540000
C -8.223000 0.881000 1.196000
C -9.553000 -1.312000 1.482000
C -11.054000 -0.973000 1.417000
C -11.953000 -1.591000 2.506000
C -13.290000 -0.828000 2.774000
C -13.105000 0.325000 3.792000
C -14.517000 -1.724000 3.134000
C -15.674000 -1.674000 2.118000
C -16.898000 -2.560000 2.418000
C -17.980000 -1.969000 3.365000
C -19.339000 -1.766000 2.665000
C -18.143000 -2.778000 4.667000
H 1.756000 1.374000 1.939000
H 6.837000 -1.846000 3.535000
H 9.036000 -1.281000 -2.235000
H 2.004000 3.118000 -2.470000
H 0.725000 2.250000 -0.197000
H 1.706000 4.004000 0.940000
H 1.275000 4.524000 -0.498000
H 2.801000 4.192000 -0.194000
H 0.438000 0.777000 -2.086000
H 1.261000 0.906000 -3.435000
H 0.069000 2.985000 -3.853000
H -0.856000 2.623000 -2.622000
H 1.824000 -0.690000 5.010000
H 1.228000 0.244000 3.889000
H 2.154000 0.859000 5.017000
H 5.438000 -2.193000 5.234000
H 4.524000 -2.219000 7.132000
H 3.402000 -1.127000 6.679000
H 9.877000 -3.595000 2.435000
H 8.640000 -3.282000 3.357000
H 9.827000 -2.240000 3.253000
H 11.081000 -2.619000 0.578000
H 10.789000 -1.973000 -0.838000
H 11.209000 -4.271000 -1.082000
H 9.716000 -3.959000 -1.534000
H 9.996000 -4.611000 -0.109000
H 7.892000 -0.481000 -5.824000
H 8.754000 -1.239000 -4.728000
H 8.983000 0.310000 -4.987000
H 3.162000 1.577000 -4.853000
H 2.974000 5.794000 -4.614000
H 2.199000 5.565000 -5.979000
H 3.784000 5.640000 -5.969000
H -3.086000 -0.276000 -4.892000
H -3.999000 1.031000 -4.842000
H -4.076000 0.010000 -2.371000
H -5.595000 -1.032000 -5.453000
H -6.941000 -1.304000 -4.681000
H -5.864000 -2.452000 -4.824000
H -5.253000 -1.833000 -1.501000
H -6.344000 -2.548000 -2.382000
H -7.856000 -0.894000 -2.063000
H -6.761000 0.107000 -1.505000
H -6.638000 -1.073000 0.512000
H -7.609000 -2.188000 -0.047000
H -9.220000 -0.234000 -0.238000
H -9.012000 1.359000 1.505000
H -7.752000 1.432000 0.546000
H -7.638000 0.707000 1.952000
H -9.246000 -1.200000 2.409000
H -9.452000 -2.262000 1.256000
H -11.394000 -1.264000 0.542000
H -11.153000 0.005000 1.447000
H -11.443000 -1.643000 3.345000
H -12.160000 -2.512000 2.235000
H -13.520000 -0.403000 1.905000
H -13.939000 0.817000 3.889000
H -12.412000 0.931000 3.479000
H -12.846000 -0.040000 4.655000
H -14.870000 -1.455000 4.011000
H -14.224000 -2.658000 3.216000
H -15.321000 -1.935000 1.239000
H -15.973000 -0.740000 2.035000
H -16.575000 -3.407000 2.796000
H -17.320000 -2.779000 1.558000
H -17.674000 -1.065000 3.640000
H -19.972000 -1.361000 3.283000
H -19.685000 -2.625000 2.366000
H -19.225000 -1.181000 1.897000
H -17.291000 -2.816000 5.135000
H -18.435000 -3.682000 4.458000
H -18.803000 -2.351000 5.241000
