972
Properties=species:S:1:pos:R:3
Mo 0.000000 0.000000 0.000000
S 1.590000 0.917987 1.595000
S 1.590000 0.917987 -1.595000
Mo -1.590000 2.753961 0.000000
S 0.000000 3.671948 1.595000
S 0.000000 3.671948 -1.595000
Mo -3.180000 5.507922 0.000000
S -1.590000 6.425908 1.595000
S -1.590000 6.425908 -1.595000
Mo -4.770000 8.261882 0.000000
S -3.180000 9.179869 1.595000
S -3.180000 9.179869 -1.595000
Mo -6.360000 11.015843 0.000000
S -4.770000 11.933830 1.595000
S -4.770000 11.933830 -1.595000
Mo -7.950000 13.769804 0.000000
S -6.360000 14.687791 1.595000
S -6.360000 14.687791 -1.595000
Mo -9.540000 16.523765 0.000000
S -7.950000 17.441752 1.595000
S -7.950000 17.441752 -1.595000
Mo -11.130000 19.277725 0.000000
S -9.540000 20.195712 1.595000
S -9.540000 20.195712 -1.595000
Mo -12.720000 22.031686 0.000000
S -11.130000 22.949673 1.595000
S -11.130000 22.949673 -1.595000
Mo -14.310000 24.785647 0.000000
S -12.720000 25.703634 1.595000
S -12.720000 25.703634 -1.595000
Mo -15.900000 27.539608 0.000000
S -14.310000 28.457595 1.595000
S -14.310000 28.457595 -1.595000
Mo -17.490000 30.293569 0.000000
S -15.900000 31.211556 1.595000
S -15.900000 31.211556 -1.595000
Mo -19.080000 33.047529 0.000000
S -17.490000 33.965516 1.595000
S -17.490000 33.965516 -1.595000
Mo -20.670000 35.801490 0.000000
S -19.080000 36.719477 1.595000
S -19.080000 36.719477 -1.595000
Mo -22.260000 38.555451 0.000000
S -20.670000 39.473438 1.595000
S -20.670000 39.473438 -1.595000
Mo -23.850000 41.309412 0.000000
S -22.260000 42.227399 1.595000
S -22.260000 42.227399 -1.595000
Mo -25.440000 44.063373 0.000000
S -23.850000 44.981359 1.595000
S -23.850000 44.981359 -1.595000
Mo -27.030000 46.817333 0.000000
S -25.440000 47.735320 1.595000
S -25.440000 47.735320 -1.595000
Mo 3.180000 0.000000 0.000000
S 4.770000 0.917987 1.595000
S 4.770000 0.917987 -1.595000
Mo 1.590000 2.753961 0.000000
S 3.180000 3.671948 1.595000
S 3.180000 3.671948 -1.595000
Mo 0.000000 5.507922 0.000000
S 1.590000 6.425908 1.595000
S 1.590000 6.425908 -1.595000
Mo -1.590000 8.261882 0.000000
S 0.000000 9.179869 1.595000
S 0.000000 9.179869 -1.595000
Mo -3.180000 11.015843 0.000000
S -1.590000 11.933830 1.595000
S -1.590000 11.933830 -1.595000
Mo -4.770000 13.769804 0.000000
S -3.180000 14.687791 1.595000
S -3.180000 14.687791 -1.595000
Mo -6.360000 16.523765 0.000000
S -4.770000 17.441752 1.595000
S -4.770000 17.441752 -1.595000
Mo -7.950000 19.277725 0.000000
S -6.360000 20.195712 1.595000
S -6.360000 20.195712 -1.595000
Mo -9.540000 22.031686 0.000000
S -7.950000 22.949673 1.595000
S -7.950000 22.949673 -1.595000
Mo -11.130000 24.785647 0.000000
S -9.540000 25.703634 1.595000
S -9.540000 25.703634 -1.595000
Mo -12.720000 27.539608 0.000000
S -11.130000 28.457595 1.595000
S -11.130000 28.457595 -1.595000
Mo -14.310000 30.293569 0.000000
S -12.720000 31.211556 1.595000
S -12.720000 31.211556 -1.595000
Mo -15.900000 33.047529 0.000000
S -14.310000 33.965516 1.595000
S -14.310000 33.965516 -1.595000
Mo -17.490000 35.801490 0.000000
S -15.900000 36.719477 1.595000
S -15.900000 36.719477 -1.595000
Mo -19.080000 38.555451 0.000000
S -17.490000 39.473438 1.595000
S -17.490000 39.473438 -1.595000
Mo -20.670000 41.309412 0.000000
S -19.080000 42.227399 1.595000
S -19.080000 42.227399 -1.595000
Mo -22.260000 44.063373 0.000000
S -20.670000 44.981359 1.595000
S -20.670000 44.981359 -1.595000
Mo -23.850000 46.817333 0.000000
S -22.260000 47.735320 1.595000
S -22.260000 47.735320 -1.595000
Mo 6.360000 0.000000 0.000000
S 7.950000 0.917987 1.595000
S 7.950000 0.917987 -1.595000
Mo 4.770000 2.753961 0.000000
S 6.360000 3.671948 1.595000
S 6.360000 3.671948 -1.595000
Mo 3.180000 5.507922 0.000000
S 4.770000 6.425908 1.595000
S 4.770000 6.425908 -1.595000
Mo 1.590000 8.261882 0.000000
S 3.180000 9.179869 1.595000
S 3.180000 9.179869 -1.595000
Mo 0.000000 11.015843 0.000000
S 1.590000 11.933830 1.595000
S 1.590000 11.933830 -1.595000
Mo -1.590000 13.769804 0.000000
S 0.000000 14.687791 1.595000
S 0.000000 14.687791 -1.595000
Mo -3.180000 16.523765 0.000000
S -1.590000 17.441752 1.595000
S -1.590000 17.441752 -1.595000
Mo -4.770000 19.277725 0.000000
S -3.180000 20.195712 1.595000
S -3.180000 20.195712 -1.595000
Mo -6.360000 22.031686 0.000000
S -4.770000 22.949673 1.595000
S -4.770000 22.949673 -1.595000
Mo -7.950000 24.785647 0.000000
S -6.360000 25.703634 1.595000
S -6.360000 25.703634 -1.595000
Mo -9.540000 27.539608 0.000000
S -7.950000 28.457595 1.595000
S -7.950000 28.457595 -1.595000
Mo -11.130000 30.293569 0.000000
S -9.540000 31.211556 1.595000
S -9.540000 31.211556 -1.595000
Mo -12.720000 33.047529 0.000000
S -11.130000 33.965516 1.595000
S -11.130000 33.965516 -1.595000
Mo -14.310000 35.801490 0.000000
S -12.720000 36.719477 1.595000
S -12.720000 36.719477 -1.595000
Mo -15.900000 38.555451 0.000000
S -14.310000 39.473438 1.595000
S -14.310000 39.473438 -1.595000
Mo -17.490000 41.309412 0.000000
S -15.900000 42.227399 1.595000
S -15.900000 42.227399 -1.595000
Mo -19.080000 44.063373 0.000000
S -17.490000 44.981359 1.595000
S -17.490000 44.981359 -1.595000
Mo -20.670000 46.817333 0.000000
S -19.080000 47.735320 1.595000
S -19.080000 47.735320 -1.595000
Mo 9.540000 0.000000 0.000000
S 11.130000 0.917987 1.595000
S 11.130000 0.917987 -1.595000
Mo 7.950000 2.753961 0.000000
S 9.540000 3.671948 1.595000
S 9.540000 3.671948 -1.595000
Mo 6.360000 5.507922 0.000000
S 7.950000 6.425908 1.595000
S 7.950000 6.425908 -1.595000
Mo 4.770000 8.261882 0.000000
S 6.360000 9.179869 1.595000
S 6.360000 9.179869 -1.595000
Mo 3.180000 11.015843 0.000000
S 4.770000 11.933830 1.595000
S 4.770000 11.933830 -1.595000
Mo 1.590000 13.769804 0.000000
S 3.180000 14.687791 1.595000
S 3.180000 14.687791 -1.595000
Mo 0.000000 16.523765 0.000000
S 1.590000 17.441752 1.595000
S 1.590000 17.441752 -1.595000
Mo -1.590000 19.277725 0.000000
S 0.000000 20.195712 1.595000
S 0.000000 20.195712 -1.595000
Mo -3.180000 22.031686 0.000000
S -1.590000 22.949673 1.595000
S -1.590000 22.949673 -1.595000
Mo -4.770000 24.785647 0.000000
S -3.180000 25.703634 1.595000
S -3.180000 25.703634 -1.595000
Mo -6.360000 27.539608 0.000000
S -4.770000 28.457595 1.595000
S -4.770000 28.457595 -1.595000
Mo -7.950000 30.293569 0.000000
S -6.360000 31.211556 1.595000
S -6.360000 31.211556 -1.595000
Mo -9.540000 33.047529 0.000000
S -7.950000 33.965516 1.595000
S -7.950000 33.965516 -1.595000
Mo -11.130000 35.801490 0.000000
S -9.540000 36.719477 1.595000
S -9.540000 36.719477 -1.595000
Mo -12.720000 38.555451 0.000000
S -11.130000 39.473438 1.595000
S -11.130000 39.473438 -1.595000
Mo -14.310000 41.309412 0.000000
S -12.720000 42.227399 1.595000
S -12.720000 42.227399 -1.595000
Mo -15.900000 44.063373 0.000000
S -14.310000 44.981359 1.595000
S -14.310000 44.981359 -1.595000
Mo -17.490000 46.817333 0.000000
S -15.900000 47.735320 1.595000
S -15.900000 47.735320 -1.595000
Mo 12.720000 0.000000 0.000000
S 14.310000 0.917987 1.595000
S 14.310000 0.917987 -1.595000
Mo 11.130000 2.753961 0.000000
S 12.720000 3.671948 1.595000
S 12.720000 3.671948 -1.595000
Mo 9.540000 5.507922 0.000000
S 11.130000 6.425908 1.595000
S 11.130000 6.425908 -1.595000
Mo 7.950000 8.261882 0.000000
S 9.540000 9.179869 1.595000
S 9.540000 9.179869 -1.595000
Mo 6.360000 11.015843 0.000000
S 7.950000 11.933830 1.595000
S 7.950000 11.933830 -1.595000
Mo 4.770000 13.769804 0.000000
S 6.360000 14.687791 1.595000
S 6.360000 14.687791 -1.595000
Mo 3.180000 16.523765 0.000000
S 4.770000 17.441752 1.595000
S 4.770000 17.441752 -1.595000
Mo 1.590000 19.277725 0.000000
S 3.180000 20.195712 1.595000
S 3.180000 20.195712 -1.595000
Mo 0.000000 22.031686 0.000000
S 1.590000 22.949673 1.595000
S 1.590000 22.949673 -1.595000
Mo -1.590000 24.785647 0.000000
S 0.000000 25.703634 1.595000
S 0.000000 25.703634 -1.595000
Mo -3.180000 27.539608 0.000000
S -1.590000 28.457595 1.595000
S -1.590000 28.457595 -1.595000
Mo -4.770000 30.293569 0.000000
S -3.180000 31.211556 1.595000
S -3.180000 31.211556 -1.595000
Mo -6.360000 33.047529 0.000000
S -4.770000 33.965516 1.595000
S -4.770000 33.965516 -1.595000
Mo -7.950000 35.801490 0.000000
S -6.360000 36.719477 1.595000
S -6.360000 36.719477 -1.595000
Mo -9.540000 38.555451 0.000000
S -7.950000 39.473438 1.595000
S -7.950000 39.473438 -1.595000
Mo -11.130000 41.309412 0.000000
S -9.540000 42.227399 1.595000
S -9.540000 42.227399 -1.595000
Mo -12.720000 44.063373 0.000000
S -11.130000 44.981359 1.595000
S -11.130000 44.981359 -1.595000
Mo -14.310000 46.817333 0.000000
S -12.720000 47.735320 1.595000
S -12.720000 47.735320 -1.595000
Mo 15.900000 0.000000 0.000000
S 17.490000 0.917987 1.595000
S 17.490000 0.917987 -1.595000
Mo 14.310000 2.753961 0.000000
S 15.900000 3.671948 1.595000
S 15.900000 3.671948 -1.595000
Mo 12.720000 5.507922 0.000000
S 14.310000 6.425908 1.595000
S 14.310000 6.425908 -1.595000
Mo 11.130000 8.261882 0.000000
S 12.720000 9.179869 1.595000
S 12.720000 9.179869 -1.595000
Mo 9.540000 11.015843 0.000000
S 11.130000 11.933830 1.595000
S 11.130000 11.933830 -1.595000
Mo 7.950000 13.769804 0.000000
S 9.540000 14.687791 1.595000
S 9.540000 14.687791 -1.595000
Mo 6.360000 16.523765 0.000000
S 7.950000 17.441752 1.595000
S 7.950000 17.441752 -1.595000
Mo 4.770000 19.277725 0.000000
S 6.360000 20.195712 1.595000
S 6.360000 20.195712 -1.595000
Mo 3.180000 22.031686 0.000000
S 4.770000 22.949673 1.595000
S 4.770000 22.949673 -1.595000
Mo 1.590000 24.785647 0.000000
S 3.180000 25.703634 1.595000
S 3.180000 25.703634 -1.595000
Mo -0.000000 27.539608 0.000000
S 1.590000 28.457595 1.595000
S 1.590000 28.457595 -1.595000
Mo -1.590000 30.293569 0.000000
S -0.000000 31.211556 1.595000
S -0.000000 31.211556 -1.595000
Mo -3.180000 33.047529 0.000000
S -1.590000 33.965516 1.595000
S -1.590000 33.965516 -1.595000
Mo -4.770000 35.801490 0.000000
S -3.180000 36.719477 1.595000
S -3.180000 36.719477 -1.595000
Mo -6.360000 38.555451 0.000000
S -4.770000 39.473438 1.595000
S -4.770000 39.473438 -1.595000
Mo -7.950000 41.309412 0.000000
S -6.360000 42.227399 1.595000
S -6.360000 42.227399 -1.595000
Mo -9.540000 44.063373 0.000000
S -7.950000 44.981359 1.595000
S -7.950000 44.981359 -1.595000
Mo -11.130000 46.817333 0.000000
S -9.540000 47.735320 1.595000
S -9.540000 47.735320 -1.595000
Mo 19.080000 0.000000 0.000000
S 20.670000 0.917987 1.595000
S 20.670000 0.917987 -1.595000
Mo 17.490000 2.753961 0.000000
S 19.080000 3.671948 1.595000
S 19.080000 3.671948 -1.595000
Mo 15.900000 5.507922 0.000000
S 17.490000 6.425908 1.595000
S 17.490000 6.425908 -1.595000
Mo 14.310000 8.261882 0.000000
S 15.900000 9.179869 1.595000
S 15.900000 9.179869 -1.595000
Mo 12.720000 11.015843 0.000000
S 14.310000 11.933830 1.595000
S 14.310000 11.933830 -1.595000
Mo 11.130000 13.769804 0.000000
S 12.720000 14.687791 1.595000
S 12.720000 14.687791 -1.595000
Mo 9.540000 16.523765 0.000000
S 11.130000 17.441752 1.595000
S 11.130000 17.441752 -1.595000
Mo 7.950000 19.277725 0.000000
S 9.540000 20.195712 1.595000
S 9.540000 20.195712 -1.595000
Mo 6.360000 22.031686 0.000000
S 7.950000 22.949673 1.595000
S 7.950000 22.949673 -1.595000
Mo 4.770000 24.785647 0.000000
S 6.360000 25.703634 1.595000
S 6.360000 25.703634 -1.595000
Mo 3.180000 27.539608 0.000000
S 4.770000 28.457595 1.595000
S 4.770000 28.457595 -1.595000
Mo 1.590000 30.293569 0.000000
S 3.180000 31.211556 1.595000
S 3.180000 31.211556 -1.595000
Mo 0.000000 33.047529 0.000000
S 1.590000 33.965516 1.595000
S 1.590000 33.965516 -1.595000
Mo -1.590000 35.801490 0.000000
S 0.000000 36.719477 1.595000
S 0.000000 36.719477 -1.595000
Mo -3.180000 38.555451 0.000000
S -1.590000 39.473438 1.595000
S -1.590000 39.473438 -1.595000
Mo -4.770000 41.309412 0.000000
S -3.180000 42.227399 1.595000
S -3.180000 42.227399 -1.595000
Mo -6.360000 44.063373 0.000000
S -4.770000 44.981359 1.595000
S -4.770000 44.981359 -1.595000
Mo -7.950000 46.817333 0.000000
S -6.360000 47.735320 1.595000
S -6.360000 47.735320 -1.595000
Mo 22.260000 0.000000 0.000000
S 23.850000 0.917987 1.595000
S 23.850000 0.917987 -1.595000
Mo 20.670000 2.753961 0.000000
S 22.260000 3.671948 1.595000
S 22.260000 3.671948 -1.595000
Mo 19.080000 5.507922 0.000000
S 20.670000 6.425908 1.595000
S 20.670000 6.425908 -1.595000
Mo 17.490000 8.261882 0.000000
S 19.080000 9.179869 1.595000
S 19.080000 9.179869 -1.595000
Mo 15.900000 11.015843 0.000000
S 17.490000 11.933830 1.595000
S 17.490000 11.933830 -1.595000
Mo 14.310000 13.769804 0.000000
S 15.900000 14.687791 1.595000
S 15.900000 14.687791 -1.595000
Mo 12.720000 16.523765 0.000000
S 14.310000 17.441752 1.595000
S 14.310000 17.441752 -1.595000
Mo 11.130000 19.277725 0.000000
S 12.720000 20.195712 1.595000
S 12.720000 20.195712 -1.595000
Mo 9.540000 22.031686 0.000000
S 11.130000 22.949673 1.595000
S 11.130000 22.949673 -1.595000
Mo 7.950000 24.785647 0.000000
S 9.540000 25.703634 1.595000
S 9.540000 25.703634 -1.595000
Mo 6.360000 27.539608 0.000000
S 7.950000 28.457595 1.595000
S 7.950000 28.457595 -1.595000
Mo 4.770000 30.293569 0.000000
S 6.360000 31.211556 1.595000
S 6.360000 31.211556 -1.595000
Mo 3.180000 33.047529 0.000000
S 4.770000 33.965516 1.595000
S 4.770000 33.965516 -1.595000
Mo 1.590000 35.801490 0.000000
S 3.180000 36.719477 1.595000
S 3.180000 36.719477 -1.595000
Mo 0.000000 38.555451 0.000000
S 1.590000 39.473438 1.595000
S 1.590000 39.473438 -1.595000
Mo -1.590000 41.309412 0.000000
S 0.000000 42.227399 1.595000
S 0.000000 42.227399 -1.595000
Mo -3.180000 44.063373 0.000000
S -1.590000 44.981359 1.595000
S -1.590000 44.981359 -1.595000
Mo -4.770000 46.817333 0.000000
S -3.180000 47.735320 1.595000
S -3.180000 47.735320 -1.595000
Mo 25.440000 0.000000 0.000000
S 27.030000 0.917987 1.595000
S 27.030000 0.917987 -1.595000
Mo 23.850000 2.753961 0.000000
S 25.440000 3.671948 1.595000
S 25.440000 3.671948 -1.595000
Mo 22.260000 5.507922 0.000000
S 23.850000 6.425908 1.595000
S 23.850000 6.425908 -1.595000
Mo 20.670000 8.261882 0.000000
S 22.260000 9.179869 1.595000
S 22.260000 9.179869 -1.595000
Mo 19.080000 11.015843 0.000000
S 20.670000 11.933830 1.595000
S 20.670000 11.933830 -1.595000
Mo 17.490000 13.769804 0.000000
S 19.080000 14.687791 1.595000
S 19.080000 14.687791 -1.595000
Mo 15.900000 16.523765 0.000000
S 17.490000 17.441752 1.595000
S 17.490000 17.441752 -1.595000
Mo 14.310000 19.277725 0.000000
S 15.900000 20.195712 1.595000
S 15.900000 20.195712 -1.595000
Mo 12.720000 22.031686 0.000000
S 14.310000 22.949673 1.595000
S 14.310000 22.949673 -1.595000
Mo 11.130000 24.785647 0.000000
S 12.720000 25.703634 1.595000
S 12.720000 25.703634 -1.595000
Mo 9.540000 27.539608 0.000000
S 11.130000 28.457595 1.595000
S 11.130000 28.457595 -1.595000
Mo 7.950000 30.293569 0.000000
S 9.540000 31.211556 1.595000
S 9.540000 31.211556 -1.595000
Mo 6.360000 33.047529 0.000000
S 7.950000 33.965516 1.595000
S 7.950000 33.965516 -1.595000
Mo 4.770000 35.801490 0.000000
S 6.360000 36.719477 1.595000
S 6.360000 36.719477 -1.595000
Mo 3.180000 38.555451 0.000000
S 4.770000 39.473438 1.595000
S 4.770000 39.473438 -1.595000
Mo 1.590000 41.309412 0.000000
S 3.180000 42.227399 1.595000
S 3.180000 42.227399 -1.595000
Mo 0.000000 44.063373 0.000000
S 1.590000 44.981359 1.595000
S 1.590000 44.981359 -1.595000
Mo -1.590000 46.817333 0.000000
S 0.000000 47.735320 1.595000
S 0.000000 47.735320 -1.595000
Mo 28.620000 0.000000 0.000000
S 30.210000 0.917987 1.595000
S 30.210000 0.917987 -1.595000
Mo 27.030000 2.753961 0.000000
S 28.620000 3.671948 1.595000
S 28.620000 3.671948 -1.595000
Mo 25.440000 5.507922 0.000000
S 27.030000 6.425908 1.595000
S 27.030000 6.425908 -1.595000
Mo 23.850000 8.261882 0.000000
S 25.440000 9.179869 1.595000
S 25.440000 9.179869 -1.595000
Mo 22.260000 11.015843 0.000000
S 23.850000 11.933830 1.595000
S 23.850000 11.933830 -1.595000
Mo 20.670000 13.769804 0.000000
S 22.260000 14.687791 1.595000
S 22.260000 14.687791 -1.595000
Mo 19.080000 16.523765 0.000000
S 20.670000 17.441752 1.595000
S 20.670000 17.441752 -1.595000
Mo 17.490000 19.277725 0.000000
S 19.080000 20.195712 1.595000
S 19.080000 20.195712 -1.595000
Mo 15.900000 22.031686 0.000000
S 17.490000 22.949673 1.595000
S 17.490000 22.949673 -1.595000
Mo 14.310000 24.785647 0.000000
S 15.900000 25.703634 1.595000
S 15.900000 25.703634 -1.595000
Mo 12.720000 27.539608 0.000000
S 14.310000 28.457595 1.595000
S 14.310000 28.457595 -1.595000
Mo 11.130000 30.293569 0.000000
S 12.720000 31.211556 1.595000
S 12.720000 31.211556 -1.595000
Mo 9.540000 33.047529 0.000000
S 11.130000 33.965516 1.595000
S 11.130000 33.965516 -1.595000
Mo 7.950000 35.801490 0.000000
S 9.540000 36.719477 1.595000
S 9.540000 36.719477 -1.595000
Mo 6.360000 38.555451 0.000000
S 7.950000 39.473438 1.595000
S 7.950000 39.473438 -1.595000
Mo 4.770000 41.309412 0.000000
S 6.360000 42.227399 1.595000
S 6.360000 42.227399 -1.595000
Mo 3.180000 44.063373 0.000000
S 4.770000 44.981359 1.595000
S 4.770000 44.981359 -1.595000
Mo 1.590000 46.817333 0.000000
S 3.180000 47.735320 1.595000
S 3.180000 47.735320 -1.595000
Mo 31.800000 0.000000 0.000000
S 33.390000 0.917987 1.595000
S 33.390000 0.917987 -1.595000
Mo 30.210000 2.753961 0.000000
S 31.800000 3.671948 1.595000
S 31.800000 3.671948 -1.595000
Mo 28.620000 5.507922 0.000000
S 30.210000 6.425908 1.595000
S 30.210000 6.425908 -1.595000
Mo 27.030000 8.261882 0.000000
S 28.620000 9.179869 1.595000
S 28.620000 9.179869 -1.595000
Mo 25.440000 11.015843 0.000000
S 27.030000 11.933830 1.595000
S 27.030000 11.933830 -1.595000
Mo 23.850000 13.769804 0.000000
S 25.440000 14.687791 1.595000
S 25.440000 14.687791 -1.595000
Mo 22.260000 16.523765 0.000000
S 23.850000 17.441752 1.595000
S 23.850000 17.441752 -1.595000
Mo 20.670000 19.277725 0.000000
S 22.260000 20.195712 1.595000
S 22.260000 20.195712 -1.595000
Mo 19.080000 22.031686 0.000000
S 20.670000 22.949673 1.595000
S 20.670000 22.949673 -1.595000
Mo 17.490000 24.785647 0.000000
S 19.080000 25.703634 1.595000
S 19.080000 25.703634 -1.595000
Mo 15.900000 27.539608 0.000000
S 17.490000 28.457595 1.595000
S 17.490000 28.457595 -1.595000
Mo 14.310000 30.293569 0.000000
S 15.900000 31.211556 1.595000
S 15.900000 31.211556 -1.595000
Mo 12.720000 33.047529 0.000000
S 14.310000 33.965516 1.595000
S 14.310000 33.965516 -1.595000
Mo 11.130000 35.801490 0.000000
S 12.720000 36.719477 1.595000
S 12.720000 36.719477 -1.595000
Mo 9.540000 38.555451 0.000000
S 11.130000 39.473438 1.595000
S 11.130000 39.473438 -1.595000
Mo 7.950000 41.309412 0.000000
S 9.540000 42.227399 1.595000
S 9.540000 42.227399 -1.595000
Mo 6.360000 44.063373 0.000000
S 7.950000 44.981359 1.595000
S 7.950000 44.981359 -1.595000
Mo 4.770000 46.817333 0.000000
S 6.360000 47.735320 1.595000
S 6.360000 47.735320 -1.595000
Mo 34.980000 0.000000 0.000000
S 36.570000 0.917987 1.595000
S 36.570000 0.917987 -1.595000
Mo 33.390000 2.753961 0.000000
S 34.980000 3.671948 1.595000
S 34.980000 3.671948 -1.595000
Mo 31.800000 5.507922 0.000000
S 33.390000 6.425908 1.595000
S 33.390000 6.425908 -1.595000
Mo 30.210000 8.261882 0.000000
S 31.800000 9.179869 1.595000
S 31.800000 9.179869 -1.595000
Mo 28.620000 11.015843 0.000000
S 30.210000 11.933830 1.595000
S 30.210000 11.933830 -1.595000
Mo 27.030000 13.769804 0.000000
S 28.620000 14.687791 1.595000
S 28.620000 14.687791 -1.595000
Mo 25.440000 16.523765 0.000000
S 27.030000 17.441752 1.595000
S 27.030000 17.441752 -1.595000
Mo 23.850000 19.277725 0.000000
S 25.440000 20.195712 1.595000
S 25.440000 20.195712 -1.595000
Mo 22.260000 22.031686 0.000000
S 23.850000 22.949673 1.595000
S 23.850000 22.949673 -1.595000
Mo 20.670000 24.785647 0.000000
S 22.260000 25.703634 1.595000
S 22.260000 25.703634 -1.595000
Mo 19.080000 27.539608 0.000000
S 20.670000 28.457595 1.595000
S 20.670000 28.457595 -1.595000
Mo 17.490000 30.293569 0.000000
S 19.080000 31.211556 1.595000
S 19.080000 31.211556 -1.595000
Mo 15.900000 33.047529 0.000000
S 17.490000 33.965516 1.595000
S 17.490000 33.965516 -1.595000
Mo 14.310000 35.801490 0.000000
S 15.900000 36.719477 1.595000
S 15.900000 36.719477 -1.595000
Mo 12.720000 38.555451 0.000000
S 14.310000 39.473438 1.595000
S 14.310000 39.473438 -1.595000
Mo 11.130000 41.309412 0.000000
S 12.720000 42.227399 1.595000
S 12.720000 42.227399 -1.595000
Mo 9.540000 44.063373 0.000000
S 11.130000 44.981359 1.595000
S 11.130000 44.981359 -1.595000
Mo 7.950000 46.817333 0.000000
S 9.540000 47.735320 1.595000
S 9.540000 47.735320 -1.595000
Mo 38.160000 0.000000 0.000000
S 39.750000 0.917987 1.595000
S 39.750000 0.917987 -1.595000
Mo 36.570000 2.753961 0.000000
S 38.160000 3.671948 1.595000
S 38.160000 3.671948 -1.595000
Mo 34.980000 5.507922 0.000000
S 36.570000 6.425908 1.595000
S 36.570000 6.425908 -1.595000
Mo 33.390000 8.261882 0.000000
S 34.980000 9.179869 1.595000
S 34.980000 9.179869 -1.595000
Mo 31.800000 11.015843 0.000000
S 33.390000 11.933830 1.595000
S 33.390000 11.933830 -1.595000
Mo 30.210000 13.769804 0.000000
S 31.800000 14.687791 1.595000
S 31.800000 14.687791 -1.595000
Mo 28.620000 16.523765 0.000000
S 30.210000 17.441752 1.595000
S 30.210000 17.441752 -1.595000
Mo 27.030000 19.277725 0.000000
S 28.620000 20.195712 1.595000
S 28.620000 20.195712 -1.595000
Mo 25.440000 22.031686 0.000000
S 27.030000 22.949673 1.595000
S 27.030000 22.949673 -1.595000
Mo 23.850000 24.785647 0.000000
S 25.440000 25.703634 1.595000
S 25.440000 25.703634 -1.595000
Mo 22.260000 27.539608 0.000000
S 23.850000 28.457595 1.595000
S 23.850000 28.457595 -1.595000
Mo 20.670000 30.293569 0.000000
S 22.260000 31.211556 1.595000
S 22.260000 31.211556 -1.595000
Mo 19.080000 33.047529 0.000000
S 20.670000 33.965516 1.595000
S 20.670000 33.965516 -1.595000
Mo 17.490000 35.801490 0.000000
S 19.080000 36.719477 1.595000
S 19.080000 36.719477 -1.595000
Mo 15.900000 38.555451 0.000000
S 17.490000 39.473438 1.595000
S 17.490000 39.473438 -1.595000
Mo 14.310000 41.309412 0.000000
S 15.900000 42.227399 1.595000
S 15.900000 42.227399 -1.595000
Mo 12.720000 44.063373 0.000000
S 14.310000 44.981359 1.595000
S 14.310000 44.981359 -1.595000
Mo 11.130000 46.817333 0.000000
S 12.720000 47.735320 1.595000
S 12.720000 47.735320 -1.595000
Mo 41.340000 0.000000 0.000000
S 42.930000 0.917987 1.595000
S 42.930000 0.917987 -1.595000
Mo 39.750000 2.753961 0.000000
S 41.340000 3.671948 1.595000
S 41.340000 3.671948 -1.595000
Mo 38.160000 5.507922 0.000000
S 39.750000 6.425908 1.595000
S 39.750000 6.425908 -1.595000
Mo 36.570000 8.261882 0.000000
S 38.160000 9.179869 1.595000
S 38.160000 9.179869 -1.595000
Mo 34.980000 11.015843 0.000000
S 36.570000 11.933830 1.595000
S 36.570000 11.933830 -1.595000
Mo 33.390000 13.769804 0.000000
S 34.980000 14.687791 1.595000
S 34.980000 14.687791 -1.595000
Mo 31.800000 16.523765 0.000000
S 33.390000 17.441752 1.595000
S 33.390000 17.441752 -1.595000
Mo 30.210000 19.277725 0.000000
S 31.800000 20.195712 1.595000
S 31.800000 20.195712 -1.595000
Mo 28.620000 22.031686 0.000000
S 30.210000 22.949673 1.595000
S 30.210000 22.949673 -1.595000
Mo 27.030000 24.785647 0.000000
S 28.620000 25.703634 1.595000
S 28.620000 25.703634 -1.595000
Mo 25.440000 27.539608 0.000000
S 27.030000 28.457595 1.595000
S 27.030000 28.457595 -1.595000
Mo 23.850000 30.293569 0.000000
S 25.440000 31.211556 1.595000
S 25.440000 31.211556 -1.595000
Mo 22.260000 33.047529 0.000000
S 23.850000 33.965516 1.595000
S 23.850000 33.965516 -1.595000
Mo 20.670000 35.801490 0.000000
S 22.260000 36.719477 1.595000
S 22.260000 36.719477 -1.595000
Mo 19.080000 38.555451 0.000000
S 20.670000 39.473438 1.595000
S 20.670000 39.473438 -1.595000
Mo 17.490000 41.309412 0.000000
S 19.080000 42.227399 1.595000
S 19.080000 42.227399 -1.595000
Mo 15.900000 44.063373 0.000000
S 17.490000 44.981359 1.595000
S 17.490000 44.981359 -1.595000
Mo 14.310000 46.817333 0.000000
S 15.900000 47.735320 1.595000
S 15.900000 47.735320 -1.595000
Mo 44.520000 0.000000 0.000000
S 46.110000 0.917987 1.595000
S 46.110000 0.917987 -1.595000
Mo 42.930000 2.753961 0.000000
S 44.520000 3.671948 1.595000
S 44.520000 3.671948 -1.595000
Mo 41.340000 5.507922 0.000000
S 42.930000 6.425908 1.595000
S 42.930000 6.425908 -1.595000
Mo 39.750000 8.261882 0.000000
S 41.340000 9.179869 1.595000
S 41.340000 9.179869 -1.595000
Mo 38.160000 11.015843 0.000000
S 39.750000 11.933830 1.595000
S 39.750000 11.933830 -1.595000
Mo 36.570000 13.769804 0.000000
S 38.160000 14.687791 1.595000
S 38.160000 14.687791 -1.595000
Mo 34.980000 16.523765 0.000000
S 36.570000 17.441752 1.595000
S 36.570000 17.441752 -1.595000
Mo 33.390000 19.277725 0.000000
S 34.980000 20.195712 1.595000
S 34.980000 20.195712 -1.595000
Mo 31.800000 22.031686 0.000000
S 33.390000 22.949673 1.595000
S 33.390000 22.949673 -1.595000
Mo 30.210000 24.785647 0.000000
S 31.800000 25.703634 1.595000
S 31.800000 25.703634 -1.595000
Mo 28.620000 27.539608 0.000000
S 30.210000 28.457595 1.595000
S 30.210000 28.457595 -1.595000
Mo 27.030000 30.293569 0.000000
S 28.620000 31.211556 1.595000
S 28.620000 31.211556 -1.595000
Mo 25.440000 33.047529 0.000000
S 27.030000 33.965516 1.595000
S 27.030000 33.965516 -1.595000
Mo 23.850000 35.801490 0.000000
S 25.440000 36.719477 1.595000
S 25.440000 36.719477 -1.595000
Mo 22.260000 38.555451 0.000000
S 23.850000 39.473438 1.595000
S 23.850000 39.473438 -1.595000
Mo 20.670000 41.309412 0.000000
S 22.260000 42.227399 1.595000
S 22.260000 42.227399 -1.595000
Mo 19.080000 44.063373 0.000000
S 20.670000 44.981359 1.595000
S 20.670000 44.981359 -1.595000
Mo 17.490000 46.817333 0.000000
S 19.080000 47.735320 1.595000
S 19.080000 47.735320 -1.595000
Mo 47.700000 0.000000 0.000000
S 49.290000 0.917987 1.595000
S 49.290000 0.917987 -1.595000
Mo 46.110000 2.753961 0.000000
S 47.700000 3.671948 1.595000
S 47.700000 3.671948 -1.595000
Mo 44.520000 5.507922 0.000000
S 46.110000 6.425908 1.595000
S 46.110000 6.425908 -1.595000
Mo 42.930000 8.261882 0.000000
S 44.520000 9.179869 1.595000
S 44.520000 9.179869 -1.595000
Mo 41.340000 11.015843 0.000000
S 42.930000 11.933830 1.595000
S 42.930000 11.933830 -1.595000
Mo 39.750000 13.769804 0.000000
S 41.340000 14.687791 1.595000
S 41.340000 14.687791 -1.595000
Mo 38.160000 16.523765 0.000000
S 39.750000 17.441752 1.595000
S 39.750000 17.441752 -1.595000
Mo 36.570000 19.277725 0.000000
S 38.160000 20.195712 1.595000
S 38.160000 20.195712 -1.595000
Mo 34.980000 22.031686 0.000000
S 36.570000 22.949673 1.595000
S 36.570000 22.949673 -1.595000
Mo 33.390000 24.785647 0.000000
S 34.980000 25.703634 1.595000
S 34.980000 25.703634 -1.595000
Mo 31.800000 27.539608 0.000000
S 33.390000 28.457595 1.595000
S 33.390000 28.457595 -1.595000
Mo 30.210000 30.293569 0.000000
S 31.800000 31.211556 1.595000
S 31.800000 31.211556 -1.595000
Mo 28.620000 33.047529 0.000000
S 30.210000 33.965516 1.595000
S 30.210000 33.965516 -1.595000
Mo 27.030000 35.801490 0.000000
S 28.620000 36.719477 1.595000
S 28.620000 36.719477 -1.595000
Mo 25.440000 38.555451 0.000000
S 27.030000 39.473438 1.595000
S 27.030000 39.473438 -1.595000
Mo 23.850000 41.309412 0.000000
S 25.440000 42.227399 1.595000
S 25.440000 42.227399 -1.595000
Mo 22.260000 44.063373 0.000000
S 23.850000 44.981359 1.595000
S 23.850000 44.981359 -1.595000
Mo 20.670000 46.817333 0.000000
S 22.260000 47.735320 1.595000
S 22.260000 47.735320 -1.595000
Mo 50.880000 0.000000 0.000000
S 52.470000 0.917987 1.595000
S 52.470000 0.917987 -1.595000
Mo 49.290000 2.753961 0.000000
S 50.880000 3.671948 1.595000
S 50.880000 3.671948 -1.595000
Mo 47.700000 5.507922 0.000000
S 49.290000 6.425908 1.595000
S 49.290000 6.425908 -1.595000
Mo 46.110000 8.261882 0.000000
S 47.700000 9.179869 1.595000
S 47.700000 9.179869 -1.595000
Mo 44.520000 11.015843 0.000000
S 46.110000 11.933830 1.595000
S 46.110000 11.933830 -1.595000
Mo 42.930000 13.769804 0.000000
S 44.520000 14.687791 1.595000
S 44.520000 14.687791 -1.595000
Mo 41.340000 16.523765 0.000000
S 42.930000 17.441752 1.595000
S 42.930000 17.441752 -1.595000
Mo 39.750000 19.277725 0.000000
S 41.340000 20.195712 1.595000
S 41.340000 20.195712 -1.595000
Mo 38.160000 22.031686 0.000000
S 39.750000 22.949673 1.595000
S 39.750000 22.949673 -1.595000
Mo 36.570000 24.785647 0.000000
S 38.160000 25.703634 1.595000
S 38.160000 25.703634 -1.595000
Mo 34.980000 27.539608 0.000000
S 36.570000 28.457595 1.595000
S 36.570000 28.457595 -1.595000
Mo 33.390000 30.293569 0.000000
S 34.980000 31.211556 1.595000
S 34.980000 31.211556 -1.595000
Mo 31.800000 33.047529 0.000000
S 33.390000 33.965516 1.595000
S 33.390000 33.965516 -1.595000
Mo 30.210000 35.801490 0.000000
S 31.800000 36.719477 1.595000
S 31.800000 36.719477 -1.595000
Mo 28.620000 38.555451 0.000000
S 30.210000 39.473438 1.595000
S 30.210000 39.473438 -1.595000
Mo 27.030000 41.309412 0.000000
S 28.620000 42.227399 1.595000
S 28.620000 42.227399 -1.595000
Mo 25.440000 44.063373 0.000000
S 27.030000 44.981359 1.595000
S 27.030000 44.981359 -1.595000
Mo 23.850000 46.817333 0.000000
S 25.440000 47.735320 1.595000
S 25.440000 47.735320 -1.595000
Mo 54.060000 0.000000 0.000000
S 55.650000 0.917987 1.595000
S 55.650000 0.917987 -1.595000
Mo 52.470000 2.753961 0.000000
S 54.060000 3.671948 1.595000
S 54.060000 3.671948 -1.595000
Mo 50.880000 5.507922 0.000000
S 52.470000 6.425908 1.595000
S 52.470000 6.425908 -1.595000
Mo 49.290000 8.261882 0.000000
S 50.880000 9.179869 1.595000
S 50.880000 9.179869 -1.595000
Mo 47.700000 11.015843 0.000000
S 49.290000 11.933830 1.595000
S 49.290000 11.933830 -1.595000
Mo 46.110000 13.769804 0.000000
S 47.700000 14.687791 1.595000
S 47.700000 14.687791 -1.595000
Mo 44.520000 16.523765 0.000000
S 46.110000 17.441752 1.595000
S 46.110000 17.441752 -1.595000
Mo 42.930000 19.277725 0.000000
S 44.520000 20.195712 1.595000
S 44.520000 20.195712 -1.595000
Mo 41.340000 22.031686 0.000000
S 42.930000 22.949673 1.595000
S 42.930000 22.949673 -1.595000
Mo 39.750000 24.785647 0.000000
S 41.340000 25.703634 1.595000
S 41.340000 25.703634 -1.595000
Mo 38.160000 27.539608 0.000000
S 39.750000 28.457595 1.595000
S 39.750000 28.457595 -1.595000
Mo 36.570000 30.293569 0.000000
S 38.160000 31.211556 1.595000
S 38.160000 31.211556 -1.595000
Mo 34.980000 33.047529 0.000000
S 36.570000 33.965516 1.595000
S 36.570000 33.965516 -1.595000
Mo 33.390000 35.801490 0.000000
S 34.980000 36.719477 1.595000
S 34.980000 36.719477 -1.595000
Mo 31.800000 38.555451 0.000000
S 33.390000 39.473438 1.595000
S 33.390000 39.473438 -1.595000
Mo 30.210000 41.309412 0.000000
S 31.800000 42.227399 1.595000
S 31.800000 42.227399 -1.595000
Mo 28.620000 44.063373 0.000000
S 30.210000 44.981359 1.595000
S 30.210000 44.981359 -1.595000
Mo 27.030000 46.817333 0.000000
S 28.620000 47.735320 1.595000
S 28.620000 47.735320 -1.595000
