113
Properties=species:S:1:pos:R:3
O -1.446000 2.756000 1.663000
C -0.438000 1.728000 1.715000
C -1.020000 0.589000 2.581000
O -2.275000 0.211000 1.905000
C -3.425000 0.840000 2.217000
O -3.428000 1.719000 3.056000
C -4.682000 0.461000 1.540000
C -5.875000 1.111000 1.861000
C -7.045000 0.753000 1.224000
C -7.038000 -0.248000 0.270000
C -5.860000 -0.896000 -0.053000
C -4.681000 -0.544000 0.571000
C -0.107000 -0.631000 2.658000
C -0.707000 -1.845000 1.997000
O -0.542000 -1.783000 0.543000
C -0.894000 -2.830000 -0.218000
O -1.443000 -3.783000 0.282000
C -0.605000 -2.818000 -1.697000
C -2.126000 -2.235000 2.413000
O -1.623000 -3.281000 3.252000
C -0.396000 -3.240000 2.522000
C 0.829000 -3.293000 3.435000
C 0.653000 -2.220000 4.503000
O -0.584000 -2.348000 5.187000
C 0.741000 -0.827000 3.870000
C 0.251000 0.043000 5.016000
C 2.208000 -0.525000 3.697000
O 3.020000 -1.439000 3.787000
C 2.695000 0.884000 3.424000
O 2.672000 1.717000 4.599000
C 3.729000 1.740000 5.427000
O 4.700000 1.063000 5.185000
C 3.704000 2.611000 6.656000
C 1.889000 1.358000 2.250000
C 2.141000 0.830000 1.055000
C 1.263000 1.206000 -0.115000
O 1.408000 0.177000 -1.145000
C 2.370000 0.289000 -2.075000
O 3.116000 1.240000 -2.061000
C 2.519000 -0.769000 -3.136000
O 3.604000 -0.427000 -4.001000
C 1.227000 -0.861000 -3.951000
N 0.957000 0.431000 -4.585000
C -0.313000 0.811000 -4.825000
O -1.234000 0.082000 -4.515000
C -0.586000 2.115000 -5.465000
C -1.900000 2.512000 -5.715000
C -2.148000 3.731000 -6.312000
C -1.097000 4.559000 -6.664000
C 0.208000 4.171000 -6.420000
C 0.469000 2.958000 -5.818000
C 1.377000 -1.920000 -5.012000
C 0.523000 -3.008000 -5.029000
C 0.661000 -3.979000 -6.002000
C 1.651000 -3.863000 -6.960000
C 2.504000 -2.776000 -6.944000
C 2.364000 -1.802000 -5.973000
C -0.203000 1.277000 0.287000
C 3.301000 -0.122000 0.837000
C 0.801000 2.375000 2.311000
C 1.190000 3.610000 1.477000
C 0.473000 2.895000 3.706000
H -2.231000 2.357000 1.262000
H -1.335000 0.980000 3.543000
H -5.882000 1.893000 2.607000
H -7.969000 1.255000 1.472000
H -7.957000 -0.524000 -0.225000
H -5.861000 -1.677000 -0.798000
H -3.762000 -1.051000 0.318000
H 0.663000 -0.382000 1.891000
H -0.960000 -3.746000 -2.144000
H -1.114000 -1.973000 -2.160000
H 0.469000 -2.726000 -1.856000
H -2.737000 -2.608000 1.585000
H -2.663000 -1.487000 3.003000
H -0.346000 -3.990000 1.730000
H 1.728000 -3.105000 2.851000
H 0.893000 -4.278000 3.900000
H 1.471000 -2.297000 5.227000
H -0.601000 -3.235000 5.570000
H 0.676000 1.043000 4.920000
H -0.836000 0.106000 4.985000
H 0.563000 -0.393000 5.964000
H 3.767000 0.825000 3.121000
H 4.642000 2.499000 7.200000
H 3.577000 3.653000 6.361000
H 2.874000 2.311000 7.297000
H 1.590000 2.147000 -0.554000
H 2.720000 -1.731000 -2.664000
H 3.387000 0.427000 -4.398000
H 0.400000 -1.122000 -3.291000
H 1.692000 1.013000 -4.833000
H -2.722000 1.867000 -5.441000
H -3.165000 4.039000 -6.506000
H -1.296000 5.511000 -7.132000
H 1.024000 4.822000 -6.697000
H 1.489000 2.656000 -5.627000
H -0.249000 -3.098000 -4.280000
H -0.005000 -4.829000 -6.015000
H 1.758000 -4.623000 -7.720000
H 3.278000 -2.685000 -7.692000
H 3.030000 -0.952000 -5.960000
H -0.675000 0.312000 0.123000
H -0.704000 1.993000 -0.380000
H 3.335000 -0.419000 -0.210000
H 4.234000 0.374000 1.104000
H 3.169000 -1.005000 1.461000
H 1.204000 3.344000 0.420000
H 0.462000 4.404000 1.643000
H 2.179000 3.955000 1.779000
H 1.398000 3.119000 4.237000
H -0.127000 3.801000 3.624000
H -0.085000 2.136000 4.254000
